7
energy: 8.23327976
C     -1.030009    -0.094364     0.010137
C      0.284929    -0.172748    -0.091725
O      1.106950     0.837584     0.311118
H     -1.502573     0.778746     0.419919
H     -1.657062    -0.902861    -0.310755
H      0.769972    -1.051951    -0.500834
H      2.027793     0.605594     0.162141
7
energy: 7.91238864
C     -1.012663    -0.089203     0.023776
C      0.278783    -0.200160    -0.094972
O      1.063985     0.828049     0.317427
H     -1.473971     0.801648     0.400349
H     -1.654123    -0.894659    -0.286326
H      0.810717    -1.040788    -0.528088
H      1.987272     0.595113     0.167833
7
energy: 7.47202608
C     -0.994308    -0.075131     0.000880
C      0.269115    -0.240919    -0.100266
O      0.995092     0.818708     0.315151
H     -1.412389     0.823823     0.418575
H     -1.662489    -0.876002    -0.271267
H      0.882726    -1.035258    -0.528077
H      1.922252     0.584779     0.165005
7
energy: 6.80004041
C     -0.963109    -0.053453    -0.031787
C      0.255305    -0.301428    -0.109535
O      0.888649     0.803342     0.309611
H     -1.317635     0.851209     0.446789
H     -1.668970    -0.843904    -0.252509
H      0.983393    -1.023472    -0.521116
H      1.822367     0.567708     0.158546
7
energy: 5.72059512
C     -0.901945    -0.015771    -0.084069
C      0.237785    -0.380420    -0.132308
O      0.720182     0.782001     0.295923
H     -1.168781     0.874668     0.504434
H     -1.656413    -0.787309    -0.241623
H      1.102176    -1.016279    -0.485495
H      1.666996     0.543110     0.143137
7
energy: 3.87376044
C     -0.740568     0.055870    -0.244709
C      0.268123    -0.415877    -0.184211
O      0.477689     0.788778     0.282656
H     -0.998171     0.802805     0.633601
H     -1.603636    -0.646569    -0.215811
H      1.129825    -1.127332    -0.397698
H      1.466738     0.542325     0.126172
7
energy: 3.59019608
C     -0.616366     0.044750    -0.480889
C      0.311287    -0.339256    -0.336673
O      0.447625     0.770861     0.448145
H     -1.089051     0.735449     0.433080
H     -1.526004    -0.568102     0.300841
H      1.026309    -1.163601    -0.663657
H      1.446200     0.519900     0.299152
7
energy: 2.52115878
C     -0.576201    -0.222869    -0.289734
C      0.335049    -0.301389    -0.283974
O      0.350276     0.671619     0.691843
H     -1.231581     1.133419    -0.206103
H     -1.199115    -0.625298     0.665812
H      0.923740    -1.052179    -1.094678
H      1.397832     0.396698     0.516834
7
energy: 1.82986426
C     -0.552914    -0.190703    -0.155962
C      0.297704    -0.206857    -0.227631
O      0.162005     0.744937     0.753949
H     -0.680473     0.659209    -0.613873
H     -1.133851    -0.550540     0.734349
H      0.524546    -0.957863    -1.112724
H      1.382983     0.501817     0.621893
7
energy: 1.72270924
C     -0.612081    -0.261473    -0.208436
C      0.409882    -0.308069    -0.179842
O      0.049592     0.907473     0.918253
H     -0.801144     0.762461    -0.634153
H     -1.132643    -0.566893     0.744830
H      0.525279    -0.933099    -1.186616
H      1.561115     0.399600     0.545964
7
energy: 1.26011020
C     -0.311425    -0.262874     0.321440
C      0.569514    -0.073385    -0.270550
O      0.517266     1.294544     0.402916
H     -1.258188     0.163911    -1.212623
H     -1.028999    -0.423659     1.084096
H      0.092232    -0.726703    -1.440779
H      1.419598     0.028166     1.115499
7
energy: 0.46102329
C     -0.420893    -0.230507     0.311415
C      0.796394     0.085383    -0.570798
O      0.823725     1.291868    -0.166494
H     -1.075573     0.180221    -0.888248
H     -0.963861    -0.398087     1.146672
H      0.245757    -0.740188    -1.302351
H      0.594451    -0.188690     1.469804
7
energy: 0.28846862
C     -0.614880    -0.174630     0.220264
C      0.905173    -0.284566    -0.187647
O      1.361207     0.952540    -0.085807
H     -1.092792     0.160254    -0.828263
H     -1.403168    -0.118657     1.103969
H      0.713581    -0.637117    -1.448401
H      0.130879     0.102176     1.225885
7
energy: 0.17892473
C     -0.520165     0.080198     0.348901
C      0.845424    -0.309464    -0.275392
O      1.416199     0.846067    -0.108292
H     -1.072246     0.252863    -0.702630
H     -1.529648    -0.502732     0.930633
H      0.698010    -0.725088    -1.429007
H      0.162427     0.358156     1.235787
7
energy: 0.06673407
C     -0.507870    -0.101038     0.282552
C      0.833887    -0.259077    -0.347745
O      1.622703     0.651398    -0.059144
H     -1.253464     0.511328    -0.462242
H     -1.199345    -0.823195     0.821341
H      0.730421    -0.795043    -1.341576
H     -0.226332     0.815627     1.106815
7
energy: 0.01647386
C     -0.590909     0.040848     0.325423
C      0.705789    -0.113131    -0.439705
O      1.717251     0.529858    -0.099998
H     -1.332653     0.488654    -0.366198
H     -1.029354    -0.896307     0.796448
H      0.919396    -0.840489    -1.324577
H     -0.389520     0.790566     1.108607
7
energy: 0.00976825
C     -0.548792     0.086195     0.301309
C      0.799976    -0.055947    -0.381593
O      1.778861     0.494743    -0.086081
H     -1.331014     0.375075    -0.409618
H     -0.818212    -0.901380     0.636799
H      0.650717    -0.767749    -1.230241
H     -0.531536     0.769064     1.169426
7
energy: 0.00927344
C     -0.580017     0.052058     0.328478
C      0.738322    -0.081283    -0.401555
O      1.782923     0.521009    -0.134943
H     -1.313050     0.449148    -0.392535
H     -0.953213    -0.920381     0.739071
H      0.796981    -0.798636    -1.272706
H     -0.471946     0.778086     1.134190
7
energy: 0.00808291
C     -0.554380     0.081784     0.304350
C      0.790218    -0.061538    -0.386799
O      1.773244     0.496777    -0.087292
H     -1.330875     0.385058    -0.405992
H     -0.836875    -0.901153     0.651378
H      0.675943    -0.772683    -1.237272
H     -0.517273     0.771755     1.161627
7
energy: 0.00774869
C     -0.578409     0.050171     0.324869
C      0.746645    -0.069258    -0.396736
O      1.781099     0.530203    -0.119541
H     -1.317919     0.434882    -0.393526
H     -0.929350    -0.931961     0.713335
H      0.785878    -0.777979    -1.271658
H     -0.487944     0.763942     1.143256
7
energy: 0.00714332
C     -0.557840     0.078044     0.306605
C      0.784213    -0.063038    -0.389382
O      1.771711     0.500218    -0.089068
H     -1.330373     0.391188    -0.403649
H     -0.847160    -0.904395     0.659160
H      0.691122    -0.773292    -1.242177
H     -0.511672     0.771275     1.158511
7
energy: 0.00692448
C     -0.576114     0.053899     0.322598
C      0.751497    -0.068007    -0.394999
O      1.782063     0.525792    -0.116487
H     -1.319363     0.429287    -0.395185
H     -0.917770    -0.929363     0.705976
H      0.772029    -0.776665    -1.266762
H     -0.492342     0.765058     1.144858
7
energy: 0.00657809
C     -0.560232     0.075312     0.308289
C      0.780074    -0.063863    -0.390757
O      1.771686     0.502879    -0.091003
H     -1.329658     0.395683    -0.402247
H     -0.854682    -0.907116     0.664686
H      0.701222    -0.773725    -1.245382
H     -0.508411     0.770830     1.156413
7
energy: 0.00643204
C     -0.574403     0.056570     0.320852
C      0.754877    -0.067356    -0.394265
O      1.781574     0.522735    -0.113535
H     -1.320704     0.425282    -0.396067
H     -0.909584    -0.927091     0.700838
H      0.762925    -0.776044    -1.263802
H     -0.494685     0.765904     1.145980
7
energy: 0.00622848
C     -0.561988     0.073235     0.309599
C      0.777035    -0.064383    -0.391558
O      1.772157     0.504961    -0.092816
H     -1.328968     0.399093    -0.401310
H     -0.860464    -0.909317     0.668820
H      0.708532    -0.774030    -1.247654
H     -0.506304     0.770441     1.154919
7
energy: 0.00613131
C     -0.573079     0.058556     0.319510
C      0.757391    -0.066943    -0.393912
O      1.780744     0.520521    -0.111064
H     -1.321805     0.422256    -0.396618
H     -0.903499    -0.925235     0.697029
H      0.756391    -0.775679    -1.261790
H     -0.496143     0.766524     1.146845
7
energy: 0.00600999
C     -0.563316     0.071625     0.310634
C      0.774735    -0.064738    -0.392052
O      1.772762     0.506604    -0.094411
H     -1.328359     0.401723    -0.400649
H     -0.864996    -0.911077     0.671992
H      0.714033    -0.774245    -1.249336
H     -0.504859     0.770107     1.153822
7
energy: 0.00594592
C     -0.572040     0.060083     0.318467
C      0.759320    -0.066675    -0.393708
O      1.779923     0.518828    -0.109068
H     -1.322652     0.419939    -0.397033
H     -0.898890    -0.923713     0.694140
H      0.751488    -0.775466    -1.260319
H     -0.497150     0.767004     1.147520
7
energy: 0.00587289
C     -0.564336     0.070364     0.311457
C      0.772964    -0.064990    -0.392370
O      1.773357     0.507904    -0.095768
H     -1.327842     0.403771    -0.400166
H     -0.868580    -0.912476     0.674456
H      0.718261    -0.774401    -1.250611
H     -0.503825     0.769828     1.153002
7
energy: 0.00583103
C     -0.571219     0.061264     0.317655
C      0.760822    -0.066482    -0.393577
O      1.779206     0.517531    -0.107487
H     -1.323308     0.418133    -0.397350
H     -0.895339    -0.922494     0.691907
H      0.747725    -0.775322    -1.259209
H     -0.497887     0.767369     1.148061
7
energy: 0.00578672
C     -0.565127     0.069371     0.312112
C      0.771588    -0.065177    -0.392583
O      1.773890     0.508935    -0.096898
H     -1.327412     0.405376    -0.399806
H     -0.871424    -0.913586     0.676386
H      0.721550    -0.774516    -1.251592
H     -0.503065     0.769597     1.152380
7
energy: 0.00575959
C     -0.570567     0.062184     0.317021
C      0.762001    -0.066335    -0.393486
O      1.778611     0.516530    -0.106243
H     -1.323817     0.416716    -0.397596
H     -0.892580    -0.921525     0.690163
H      0.744798    -0.775217    -1.258355
H     -0.498446     0.767647     1.148496
7
energy: 0.00573253
C     -0.565745     0.068587     0.312634
C      0.770510    -0.065317    -0.392730
O      1.774346     0.509753    -0.097826
H     -1.327058     0.406638    -0.399532
H     -0.873685    -0.914465     0.677905
H      0.724127    -0.774602    -1.252355
H     -0.502494     0.769407     1.151904
7
energy: 0.00571507
C     -0.570049     0.062905     0.316523
C      0.762932    -0.066223    -0.393417
O      1.778129     0.515748    -0.105265
H     -1.324210     0.415600    -0.397794
H     -0.890425    -0.920751     0.688796
H      0.742504    -0.775141    -1.257688
H     -0.498881     0.767862     1.148845
7
energy: 0.00569845
C     -0.566230     0.067966     0.313050
C      0.769664    -0.065424    -0.392834
O      1.774724     0.510402    -0.098582
H     -1.326771     0.407632    -0.399323
H     -0.875483    -0.915161     0.679103
H      0.726156    -0.774667    -1.252952
H     -0.502059     0.769253     1.151537
7
energy: 0.00568727
C     -0.569638     0.063472     0.316132
C      0.763667    -0.066136    -0.393363
O      1.777744     0.515137    -0.104497
H     -1.324515     0.414720    -0.397951
H     -0.888735    -0.920138     0.687720
H      0.740698    -0.775084    -1.257165
H     -0.499221     0.768028     1.149125
7
energy: 0.00567703
C     -0.566612     0.067475     0.313381
C      0.768997    -0.065507    -0.392910
O      1.775034     0.510917    -0.099193
H     -1.326538     0.408417    -0.399161
H     -0.876913    -0.915712     0.680051
H      0.727756    -0.774717    -1.253421
H     -0.501725     0.769128     1.151252
7
energy: 0.00566990
C     -0.569311     0.063919     0.315824
C      0.764250    -0.066067    -0.393320
O      1.777438     0.514658    -0.103893
H     -1.324754     0.414024    -0.398077
H     -0.887407    -0.919651     0.686870
H      0.739273    -0.775040    -1.256753
H     -0.499490     0.768158     1.149349
7
energy: 0.00566357
C     -0.566912     0.067085     0.313645
C      0.768471    -0.065572    -0.392966
O      1.775285     0.511326    -0.099685
H     -1.326351     0.409037    -0.399035
H     -0.878049    -0.916148     0.680800
H      0.729022    -0.774756    -1.253790
H     -0.501465     0.769027     1.151030
7
energy: 0.00565904
C     -0.569051     0.064271     0.315581
C      0.764711    -0.066013    -0.393285
O      1.777196     0.514282    -0.103418
H     -1.324939     0.413474    -0.398178
H     -0.886360    -0.919266     0.686199
H      0.738146    -0.775007    -1.256427
H     -0.499703     0.768259     1.149528
7
energy: 0.00565511
C     -0.567150     0.066777     0.313855
C      0.768055    -0.065622    -0.393007
O      1.775486     0.511650    -0.100079
H     -1.326202     0.409527    -0.398937
H     -0.878952    -0.916493     0.681393
H      0.730023    -0.774785    -1.254082
H     -0.501262     0.768946     1.150857
7
energy: 0.00565224
C     -0.568844     0.064550     0.315389
C      0.765077    -0.065971    -0.393258
O      1.777004     0.513985    -0.103043
H     -1.325085     0.413039    -0.398258
H     -0.885535    -0.918960     0.685669
H      0.737254    -0.774981    -1.256169
H     -0.499871     0.768338     1.149670
7
energy: 0.00564979
C     -0.567337     0.066532     0.314021
C      0.767727    -0.065661    -0.393039
O      1.775648     0.511906    -0.100394
H     -1.326082     0.409915    -0.398860
H     -0.879668    -0.916766     0.681863
H      0.730817    -0.774809    -1.254312
H     -0.501104     0.768882     1.150721
7
energy: 0.00564798
C     -0.568680     0.064769     0.315237
C      0.765367    -0.065937    -0.393235
O      1.776852     0.513752    -0.102747
H     -1.325199     0.412695    -0.398322
H     -0.884883    -0.918718     0.685249
H      0.736548    -0.774961    -1.255965
H     -0.500005     0.768400     1.149784
7
energy: 0.00564646
C     -0.567486     0.066339     0.314154
C      0.767466    -0.065692    -0.393064
O      1.775778     0.512110    -0.100646
H     -1.325987     0.410222    -0.398799
H     -0.880237    -0.916982     0.682235
H      0.731445    -0.774826    -1.254494
H     -0.500980     0.768830     1.150615
7
energy: 0.00564531
C     -0.568550     0.064943     0.315117
C      0.765597    -0.065910    -0.393218
O      1.776732     0.513568    -0.102513
H     -1.325288     0.412422    -0.398374
H     -0.884368    -0.918527     0.684917
H      0.735988    -0.774945    -1.255804
H     -0.500111     0.768448     1.149874
7
energy: 0.00564436
C     -0.567603     0.066185     0.314259
C      0.767261    -0.065717    -0.393082
O      1.775881     0.512270    -0.100847
H     -1.325911     0.410465    -0.398752
H     -0.880689    -0.917152     0.682530
H      0.731943    -0.774840    -1.254639
H     -0.500882     0.768789     1.150531
7
energy: 0.00564364
C     -0.568447     0.065081     0.315022
C      0.765779    -0.065889    -0.393203
O      1.776638     0.513423    -0.102329
H     -1.325359     0.412206    -0.398414
H     -0.883961    -0.918375     0.684654
H      0.735545    -0.774933    -1.255676
H     -0.500196     0.768487     1.149946
7
energy: 0.00564305
C     -0.567696     0.066064     0.314342
C      0.767097    -0.065736    -0.393097
O      1.775963     0.512398    -0.101007
H     -1.325851     0.410657    -0.398714
H     -0.881047    -0.917288     0.682763
H      0.732338    -0.774851    -1.254753
H     -0.500805     0.768756     1.150465
