7
Debug optimization step
C -2.536630 2.876592 0.010298
C -1.223282 2.797910 -0.091664
O -0.468872 3.824478 0.321901
H -3.011181 3.749205 0.419838
H -3.165650 2.067469 -0.310679
H -0.738631 1.918455 -0.500919
H 0.584048 3.558691 0.151224
7
Debug optimization step
C -2.522920 2.880254 0.011292
C -1.221109 2.799421 -0.091277
O -0.548961 3.842068 0.334403
H -3.011233 3.749603 0.419293
H -3.165562 2.067008 -0.310163
H -0.738615 1.918513 -0.501481
H 0.648201 3.535933 0.137933
7
Debug optimization step
C -2.252515 2.945064 0.027579
C -1.190521 2.818081 -0.086795
O -0.698521 3.846682 0.358194
H -3.010494 3.757015 0.407236
H -3.159737 2.062130 -0.298218
H -0.736501 1.920666 -0.512694
H 0.488092 3.443162 0.104697
7
Debug optimization step
C -1.991970 2.984472 0.050179
C -1.141407 2.812784 -0.100675
O -0.862659 3.923317 0.430866
H -2.985195 3.760944 0.371377
H -3.105658 2.089601 -0.265229
H -0.725271 1.926015 -0.535216
H 0.251961 3.295667 0.048697
7
Debug optimization step
C -1.981812 2.969850 0.055234
C -1.157906 2.821647 -0.097894
O -0.874926 3.949388 0.455263
H -2.965476 3.756454 0.350341
H -3.074548 2.103246 -0.251022
H -0.716142 1.927131 -0.547639
H 0.210610 3.265085 0.035718
7
Debug optimization step
C -1.951583 2.921698 0.081653
C -1.276283 2.858133 -0.071170
O -0.910656 4.032204 0.554758
H -2.870718 3.731300 0.241940
H -2.926586 2.158409 -0.180719
H -0.677448 1.942534 -0.610601
H 0.053075 3.148521 -0.015861
7
Debug optimization step
C -1.985918 2.907598 0.073254
C -1.329548 2.838017 -0.064655
O -0.892613 4.059788 0.574617
H -2.862623 3.728120 0.228341
H -2.913438 2.158672 -0.172726
H -0.678559 1.948965 -0.618119
H 0.102500 3.151639 -0.020712
7
Debug optimization step
C -2.015248 2.886829 -0.008186
C -1.318344 2.932508 -0.061514
O -0.887234 3.989132 0.705509
H -2.868602 3.759615 0.091783
H -2.901583 2.065483 -0.063765
H -0.688620 2.009503 -0.602229
H 0.119433 3.149730 -0.061598
7
Debug optimization step
C -2.012631 2.890309 -0.008049
C -1.311594 2.937055 -0.055353
O -0.888680 3.983150 0.704968
H -2.865347 3.758225 0.086674
H -2.896906 2.065791 -0.060857
H -0.688624 2.011642 -0.604268
H 0.103583 3.146628 -0.063115
7
Debug optimization step
C -2.028288 2.893016 0.008651
C -1.345350 2.952740 -0.028975
O -0.883967 3.968285 0.762378
H -2.832582 3.753019 -0.004988
H -2.825420 2.064874 -0.011184
H -0.702956 2.049227 -0.637049
H 0.058364 3.111639 -0.088833
7
Debug optimization step
C -2.028020 2.892510 0.010186
C -1.345482 2.953791 -0.031041
O -0.884029 3.968081 0.762325
H -2.832563 3.753016 -0.005143
H -2.825365 2.064819 -0.011102
H -0.702997 2.049269 -0.637097
H 0.058257 3.111314 -0.088128
7
Debug optimization step
C -2.028023 2.892974 0.009794
C -1.345359 2.953238 -0.030359
O -0.884055 3.967985 0.762306
H -2.832555 3.753014 -0.005212
H -2.825339 2.064794 -0.011065
H -0.703017 2.049295 -0.637132
H 0.058150 3.111500 -0.088332
7
Debug optimization step
C -2.023535 2.898566 0.013795
C -1.343106 2.955224 -0.028797
O -0.886101 3.960831 0.760729
H -2.831920 3.752877 -0.010557
H -2.823394 2.062878 -0.008214
H -0.704518 2.051042 -0.639340
H 0.052374 3.111382 -0.087616
7
Debug optimization step
C -2.007477 2.924229 0.034152
C -1.350326 2.957483 -0.024172
O -0.891179 3.931913 0.760940
H -2.828381 3.752185 -0.041223
H -2.810843 2.053761 0.007880
H -0.713113 2.060696 -0.652092
H 0.041119 3.112533 -0.085485
7
Debug optimization step
C -2.022062 2.923343 0.039222
C -1.360534 2.944418 -0.030111
O -0.876919 3.940026 0.781360
H -2.827990 3.752418 -0.060992
H -2.801049 2.051903 0.017520
H -0.719319 2.066844 -0.660142
H 0.047674 3.113847 -0.086856
7
Debug optimization step
C -2.019052 2.930452 0.047590
C -1.349790 2.945620 -0.028514
O -0.877073 3.930023 0.782473
H -2.828672 3.752608 -0.074265
H -2.796931 2.049131 0.023904
H -0.723563 2.070858 -0.665772
H 0.034882 3.114107 -0.085416
7
Debug optimization step
C -2.022444 2.943617 0.069225
C -1.381699 2.935090 -0.028151
O -0.865691 3.917086 0.802555
H -2.829494 3.751100 -0.117947
H -2.781183 2.042974 0.044864
H -0.736833 2.083066 -0.684954
H 0.057144 3.119867 -0.085593
7
Debug optimization step
C -2.023555 2.957398 0.089814
C -1.384524 2.937383 -0.021304
O -0.851039 3.899146 0.827603
H -2.831957 3.741729 -0.173741
H -2.765406 2.037228 0.072955
H -0.754832 2.100721 -0.709458
H 0.051115 3.119196 -0.085868
7
Debug optimization step
C -2.031948 2.987970 0.135689
C -1.383796 2.988212 0.026329
O -0.792889 3.828001 0.929216
H -2.845559 3.687965 -0.387491
H -2.710918 2.021430 0.188031
H -0.831185 2.179381 -0.797196
H 0.036096 3.099842 -0.094578
7
Debug optimization step
C -2.031448 2.990669 0.134061
C -1.371457 2.989960 0.026731
O -0.793068 3.825321 0.929520
H -2.844607 3.685029 -0.389835
H -2.710752 2.020928 0.190336
H -0.833630 2.182758 -0.797130
H 0.024763 3.098135 -0.093684
7
Debug optimization step
C -2.032061 3.021152 0.118079
C -1.378199 3.012154 0.023181
O -0.779522 3.793261 0.963163
H -2.825897 3.625081 -0.443703
H -2.695038 2.023061 0.237302
H -0.878765 2.244138 -0.805468
H 0.029282 3.073952 -0.092553
7
Debug optimization step
C -2.031816 3.019903 0.120329
C -1.370671 3.013923 0.026868
O -0.779011 3.790685 0.962659
H -2.829207 3.625138 -0.448668
H -2.693809 2.024730 0.238854
H -0.879113 2.244578 -0.808499
H 0.023428 3.073844 -0.091543
7
Debug optimization step
C -2.032971 3.017223 0.123639
C -1.376755 3.015718 0.033560
O -0.775845 3.788469 0.965841
H -2.834085 3.623912 -0.458400
H -2.690878 2.028257 0.242202
H -0.879915 2.245794 -0.814790
H 0.030250 3.073426 -0.092052
7
Debug optimization step
C -2.032812 3.017287 0.124760
C -1.370615 3.016712 0.034835
O -0.775158 3.787275 0.966644
H -2.835323 3.623003 -0.461708
H -2.690369 2.028863 0.243571
H -0.880518 2.246868 -0.816540
H 0.024597 3.072793 -0.091561
7
Debug optimization step
C -2.034065 3.016694 0.129869
C -1.381942 3.020691 0.044575
O -0.768081 3.783689 0.977223
H -2.840254 3.615347 -0.481835
H -2.685834 2.033651 0.252320
H -0.884278 2.253508 -0.828266
H 0.034256 3.069219 -0.093886
7
Debug optimization step
C -2.033912 3.016905 0.129977
C -1.379756 3.020975 0.044648
O -0.768139 3.783336 0.977134
H -2.840278 3.615093 -0.482238
H -2.685871 2.033612 0.252548
H -0.884456 2.253801 -0.828396
H 0.032213 3.069079 -0.093673
7
Debug optimization step
C -2.033266 3.017911 0.130485
C -1.370595 3.022297 0.045069
O -0.768258 3.781719 0.976974
H -2.840311 3.613715 -0.484325
H -2.685966 2.033489 0.253732
H -0.885367 2.255298 -0.829127
H 0.023563 3.068369 -0.092807
7
Debug optimization step
C -2.033390 3.019524 0.130984
C -1.375973 3.024340 0.047541
O -0.766222 3.779939 0.980552
H -2.839263 3.608908 -0.490342
H -2.685032 2.034224 0.257196
H -0.887851 2.259358 -0.832001
H 0.027531 3.066506 -0.093929
7
Debug optimization step
C -2.033224 3.020146 0.131361
C -1.371318 3.025296 0.048040
O -0.765885 3.778852 0.981041
H -2.839161 3.607456 -0.492428
H -2.684884 2.034360 0.258334
H -0.888780 2.260828 -0.832796
H 0.023053 3.065863 -0.093551
7
Debug optimization step
C -2.034098 3.022563 0.132432
C -1.380379 3.029557 0.053462
O -0.761401 3.775140 0.988316
H -2.837227 3.597561 -0.505290
H -2.682668 2.036381 0.265392
H -0.894377 2.269592 -0.838592
H 0.029950 3.062006 -0.095720
7
Debug optimization step
C -2.033926 3.022778 0.132598
C -1.376888 3.030001 0.053628
O -0.761445 3.774606 0.988219
H -2.837263 3.597122 -0.506014
H -2.682683 2.036381 0.265753
H -0.894725 2.270125 -0.838793
H 0.026731 3.061786 -0.095392
7
Debug optimization step
C -2.033710 3.023231 0.132971
C -1.372147 3.030782 0.054050
O -0.761291 3.773656 0.988425
H -2.837210 3.595994 -0.507704
H -2.682586 2.036494 0.266602
H -0.895527 2.271349 -0.839351
H 0.022272 3.061294 -0.094993
7
Debug optimization step
C -2.033712 3.023230 0.133001
C -1.372196 3.030841 0.054069
O -0.761259 3.773626 0.988476
H -2.837194 3.595916 -0.507806
H -2.682569 2.036511 0.266654
H -0.895575 2.271421 -0.839393
H 0.022305 3.061255 -0.095001
7
Debug optimization step
C -2.033717 3.023269 0.132971
C -1.372194 3.030790 0.054119
O -0.761256 3.773622 0.988482
H -2.837192 3.595908 -0.507817
H -2.682567 2.036513 0.266659
H -0.895580 2.271428 -0.839398
H 0.022306 3.061269 -0.095017
7
Debug optimization step
C -2.033716 3.023262 0.132978
C -1.372196 3.030801 0.054110
O -0.761255 3.773622 0.988483
H -2.837192 3.595907 -0.507819
H -2.682567 2.036514 0.266661
H -0.895581 2.271430 -0.839398
H 0.022307 3.061265 -0.095014
7
Debug optimization step
C -2.033714 3.023241 0.133000
C -1.372205 3.030840 0.054085
O -0.761251 3.773618 0.988489
H -2.837190 3.595898 -0.507831
H -2.682565 2.036516 0.266667
H -0.895586 2.271438 -0.839403
H 0.022312 3.061250 -0.095006
7
Debug optimization step
C -2.033714 3.023245 0.132997
C -1.372205 3.030834 0.054091
O -0.761251 3.773617 0.988490
H -2.837190 3.595896 -0.507833
H -2.682565 2.036516 0.266668
H -0.895587 2.271439 -0.839404
H 0.022312 3.061252 -0.095008
7
Debug optimization step
C -2.033717 3.023266 0.132983
C -1.372207 3.030810 0.054119
O -0.761247 3.773614 0.988495
H -2.837188 3.595888 -0.507844
H -2.682563 2.036518 0.266673
H -0.895592 2.271447 -0.839409
H 0.022314 3.061257 -0.095017
7
Debug optimization step
C -2.033716 3.023256 0.132993
C -1.372211 3.030828 0.054108
O -0.761245 3.773612 0.988498
H -2.837187 3.595883 -0.507850
H -2.682562 2.036519 0.266676
H -0.895595 2.271451 -0.839411
H 0.022317 3.061250 -0.095014
7
Debug optimization step
C -2.033720 3.023281 0.132991
C -1.372236 3.030829 0.054152
O -0.761224 3.773591 0.988532
H -2.837177 3.595832 -0.507918
H -2.682550 2.036530 0.266711
H -0.895627 2.271499 -0.839439
H 0.022335 3.061237 -0.095029
7
Debug optimization step
C -2.033718 3.023259 0.133014
C -1.372244 3.030870 0.054125
O -0.761220 3.773588 0.988538
H -2.837175 3.595823 -0.507930
H -2.682548 2.036532 0.266717
H -0.895632 2.271507 -0.839444
H 0.022339 3.061221 -0.095020
7
Debug optimization step
C -2.033718 3.023264 0.133010
C -1.372244 3.030863 0.054132
O -0.761220 3.773587 0.988539
H -2.837175 3.595822 -0.507931
H -2.682548 2.036532 0.266718
H -0.895633 2.271509 -0.839445
H 0.022339 3.061223 -0.095022
7
Debug optimization step
C -2.033721 3.023286 0.132995
C -1.372246 3.030837 0.054162
O -0.761216 3.773584 0.988545
H -2.837173 3.595812 -0.507944
H -2.682546 2.036534 0.266724
H -0.895639 2.271517 -0.839450
H 0.022341 3.061229 -0.095032
7
Debug optimization step
C -2.033720 3.023282 0.132999
C -1.372247 3.030845 0.054157
O -0.761215 3.773583 0.988546
H -2.837173 3.595811 -0.507946
H -2.682546 2.036535 0.266725
H -0.895640 2.271519 -0.839451
H 0.022342 3.061226 -0.095031
7
Debug optimization step
C -2.033719 3.023267 0.133016
C -1.372256 3.030875 0.054141
O -0.761211 3.773579 0.988553
H -2.837171 3.595800 -0.507960
H -2.682543 2.036537 0.266733
H -0.895646 2.271529 -0.839457
H 0.022346 3.061214 -0.095026
7
Debug optimization step
C -2.033719 3.023269 0.133014
C -1.372256 3.030872 0.054144
O -0.761210 3.773578 0.988554
H -2.837170 3.595799 -0.507962
H -2.682543 2.036537 0.266733
H -0.895647 2.271530 -0.839457
H 0.022347 3.061215 -0.095027
7
Debug optimization step
C -2.033721 3.023281 0.133006
C -1.372256 3.030858 0.054160
O -0.761208 3.773576 0.988557
H -2.837169 3.595794 -0.507968
H -2.682542 2.036538 0.266737
H -0.895650 2.271535 -0.839460
H 0.022348 3.061218 -0.095032
7
Debug optimization step
C -2.033721 3.023276 0.133019
C -1.372268 3.030882 0.054158
O -0.761200 3.773568 0.988570
H -2.837165 3.595774 -0.507995
H -2.682538 2.036543 0.266750
H -0.895662 2.271553 -0.839471
H 0.022355 3.061205 -0.095031
7
Debug optimization step
C -2.033723 3.023298 0.133004
C -1.372269 3.030856 0.054188
O -0.761196 3.773564 0.988576
H -2.837163 3.595764 -0.508007
H -2.682536 2.036545 0.266756
H -0.895668 2.271562 -0.839476
H 0.022357 3.061211 -0.095041
7
Debug optimization step
C -2.033723 3.023295 0.133007
C -1.372270 3.030861 0.054185
O -0.761196 3.773564 0.988577
H -2.837163 3.595763 -0.508009
H -2.682535 2.036545 0.266757
H -0.895669 2.271563 -0.839476
H 0.022357 3.061209 -0.095040
7
Debug optimization step
C -2.033722 3.023283 0.133020
C -1.372275 3.030884 0.054171
O -0.761193 3.773561 0.988581
H -2.837162 3.595757 -0.508018
H -2.682534 2.036546 0.266762
H -0.895673 2.271569 -0.839480
H 0.022360 3.061200 -0.095036
7
Debug optimization step
C -2.033724 3.023302 0.133008
C -1.372278 3.030864 0.054198
O -0.761188 3.773556 0.988589
H -2.837160 3.595745 -0.508033
H -2.682531 2.036549 0.266770
H -0.895680 2.271580 -0.839487
H 0.022363 3.061203 -0.095045
7
Debug optimization step
C -2.033724 3.023300 0.133010
C -1.372279 3.030868 0.054196
O -0.761188 3.773556 0.988590
H -2.837159 3.595744 -0.508034
H -2.682531 2.036549 0.266770
H -0.895681 2.271581 -0.839487
H 0.022363 3.061202 -0.095044
7
Debug optimization step
C -2.536630 2.876592 0.010298
C -1.223282 2.797910 -0.091664
O -0.468872 3.824478 0.321901
H -3.011181 3.749205 0.419838
H -3.165650 2.067469 -0.310679
H -0.738631 1.918455 -0.500919
H 0.584048 3.558691 0.151224
7
Debug optimization step
C -2.522920 2.880254 0.011292
C -1.221109 2.799421 -0.091277
O -0.548961 3.842068 0.334403
H -3.011233 3.749603 0.419293
H -3.165562 2.067008 -0.310163
H -0.738615 1.918513 -0.501481
H 0.648201 3.535933 0.137933
7
Debug optimization step
C -2.252515 2.945064 0.027579
C -1.190521 2.818081 -0.086795
O -0.698521 3.846682 0.358194
H -3.010494 3.757015 0.407236
H -3.159737 2.062130 -0.298218
H -0.736501 1.920666 -0.512694
H 0.488092 3.443162 0.104697
7
Debug optimization step
C -1.991970 2.984472 0.050179
C -1.141407 2.812784 -0.100675
O -0.862659 3.923317 0.430866
H -2.985195 3.760944 0.371377
H -3.105658 2.089601 -0.265229
H -0.725271 1.926015 -0.535216
H 0.251961 3.295667 0.048697
7
Debug optimization step
C -1.981812 2.969850 0.055234
C -1.157906 2.821647 -0.097894
O -0.874926 3.949388 0.455263
H -2.965476 3.756454 0.350341
H -3.074548 2.103246 -0.251022
H -0.716142 1.927131 -0.547639
H 0.210610 3.265085 0.035718
7
Debug optimization step
C -1.951583 2.921698 0.081653
C -1.276283 2.858133 -0.071170
O -0.910656 4.032204 0.554758
H -2.870718 3.731300 0.241940
H -2.926586 2.158409 -0.180719
H -0.677448 1.942534 -0.610601
H 0.053075 3.148521 -0.015861
7
Debug optimization step
C -1.985918 2.907598 0.073254
C -1.329548 2.838017 -0.064655
O -0.892613 4.059788 0.574617
H -2.862623 3.728120 0.228341
H -2.913438 2.158672 -0.172726
H -0.678559 1.948965 -0.618119
H 0.102500 3.151639 -0.020712
7
Debug optimization step
C -2.015248 2.886829 -0.008186
C -1.318344 2.932508 -0.061514
O -0.887234 3.989132 0.705509
H -2.868602 3.759615 0.091783
H -2.901583 2.065483 -0.063765
H -0.688620 2.009503 -0.602229
H 0.119433 3.149730 -0.061598
7
Debug optimization step
C -2.012631 2.890309 -0.008049
C -1.311594 2.937055 -0.055353
O -0.888680 3.983150 0.704968
H -2.865347 3.758225 0.086674
H -2.896906 2.065791 -0.060857
H -0.688624 2.011642 -0.604268
H 0.103583 3.146628 -0.063115
7
Debug optimization step
C -2.028288 2.893016 0.008651
C -1.345350 2.952740 -0.028975
O -0.883967 3.968285 0.762378
H -2.832582 3.753019 -0.004988
H -2.825420 2.064874 -0.011184
H -0.702956 2.049227 -0.637049
H 0.058364 3.111639 -0.088833
7
Debug optimization step
C -2.028020 2.892510 0.010186
C -1.345482 2.953791 -0.031041
O -0.884029 3.968081 0.762325
H -2.832563 3.753016 -0.005143
H -2.825365 2.064819 -0.011102
H -0.702997 2.049269 -0.637097
H 0.058257 3.111314 -0.088128
7
Debug optimization step
C -2.028023 2.892974 0.009794
C -1.345359 2.953238 -0.030359
O -0.884055 3.967985 0.762306
H -2.832555 3.753014 -0.005212
H -2.825339 2.064794 -0.011065
H -0.703017 2.049295 -0.637132
H 0.058150 3.111500 -0.088332
7
Debug optimization step
C -2.023535 2.898566 0.013795
C -1.343106 2.955224 -0.028797
O -0.886101 3.960831 0.760729
H -2.831920 3.752877 -0.010557
H -2.823394 2.062878 -0.008214
H -0.704518 2.051042 -0.639340
H 0.052374 3.111382 -0.087616
7
Debug optimization step
C -2.007477 2.924229 0.034152
C -1.350326 2.957483 -0.024172
O -0.891179 3.931913 0.760940
H -2.828381 3.752185 -0.041223
H -2.810843 2.053761 0.007880
H -0.713113 2.060696 -0.652092
H 0.041119 3.112533 -0.085485
7
Debug optimization step
C -2.022062 2.923343 0.039222
C -1.360534 2.944418 -0.030111
O -0.876919 3.940026 0.781360
H -2.827990 3.752418 -0.060992
H -2.801049 2.051903 0.017520
H -0.719319 2.066844 -0.660142
H 0.047674 3.113847 -0.086856
7
Debug optimization step
C -2.019052 2.930452 0.047590
C -1.349790 2.945620 -0.028514
O -0.877073 3.930023 0.782473
H -2.828672 3.752608 -0.074265
H -2.796931 2.049131 0.023904
H -0.723563 2.070858 -0.665772
H 0.034882 3.114107 -0.085416
7
Debug optimization step
C -2.022444 2.943617 0.069225
C -1.381699 2.935090 -0.028151
O -0.865691 3.917086 0.802555
H -2.829494 3.751100 -0.117947
H -2.781183 2.042974 0.044864
H -0.736833 2.083066 -0.684954
H 0.057144 3.119867 -0.085593
7
Debug optimization step
C -2.023555 2.957398 0.089814
C -1.384524 2.937383 -0.021304
O -0.851039 3.899146 0.827603
H -2.831957 3.741729 -0.173741
H -2.765406 2.037228 0.072955
H -0.754832 2.100721 -0.709458
H 0.051115 3.119196 -0.085868
7
Debug optimization step
C -2.031948 2.987970 0.135689
C -1.383796 2.988212 0.026329
O -0.792889 3.828001 0.929216
H -2.845559 3.687965 -0.387491
H -2.710918 2.021430 0.188031
H -0.831185 2.179381 -0.797196
H 0.036096 3.099842 -0.094578
7
Debug optimization step
C -2.031448 2.990669 0.134061
C -1.371457 2.989960 0.026731
O -0.793068 3.825321 0.929520
H -2.844607 3.685029 -0.389835
H -2.710752 2.020928 0.190336
H -0.833630 2.182758 -0.797130
H 0.024763 3.098135 -0.093684
7
Debug optimization step
C -2.032061 3.021152 0.118079
C -1.378199 3.012154 0.023181
O -0.779522 3.793261 0.963163
H -2.825897 3.625081 -0.443703
H -2.695038 2.023061 0.237302
H -0.878765 2.244138 -0.805468
H 0.029282 3.073952 -0.092553
7
Debug optimization step
C -2.031816 3.019903 0.120329
C -1.370671 3.013923 0.026868
O -0.779011 3.790685 0.962659
H -2.829207 3.625138 -0.448668
H -2.693809 2.024730 0.238854
H -0.879113 2.244578 -0.808499
H 0.023428 3.073844 -0.091543
7
Debug optimization step
C -2.032971 3.017223 0.123639
C -1.376755 3.015718 0.033560
O -0.775845 3.788469 0.965841
H -2.834085 3.623912 -0.458400
H -2.690878 2.028257 0.242202
H -0.879915 2.245794 -0.814790
H 0.030250 3.073426 -0.092052
7
Debug optimization step
C -2.032812 3.017287 0.124760
C -1.370615 3.016712 0.034835
O -0.775158 3.787275 0.966644
H -2.835323 3.623003 -0.461708
H -2.690369 2.028863 0.243571
H -0.880518 2.246868 -0.816540
H 0.024597 3.072793 -0.091561
7
Debug optimization step
C -2.034065 3.016694 0.129869
C -1.381942 3.020691 0.044575
O -0.768081 3.783689 0.977223
H -2.840254 3.615347 -0.481835
H -2.685834 2.033651 0.252320
H -0.884278 2.253508 -0.828266
H 0.034256 3.069219 -0.093886
7
Debug optimization step
C -2.033912 3.016905 0.129977
C -1.379756 3.020975 0.044648
O -0.768139 3.783336 0.977134
H -2.840278 3.615093 -0.482238
H -2.685871 2.033612 0.252548
H -0.884456 2.253801 -0.828396
H 0.032213 3.069079 -0.093673
7
Debug optimization step
C -2.033266 3.017911 0.130485
C -1.370595 3.022297 0.045069
O -0.768258 3.781719 0.976974
H -2.840311 3.613715 -0.484325
H -2.685966 2.033489 0.253732
H -0.885367 2.255298 -0.829127
H 0.023563 3.068369 -0.092807
7
Debug optimization step
C -2.033390 3.019524 0.130984
C -1.375973 3.024340 0.047541
O -0.766222 3.779939 0.980552
H -2.839263 3.608908 -0.490342
H -2.685032 2.034224 0.257196
H -0.887851 2.259358 -0.832001
H 0.027531 3.066506 -0.093929
7
Debug optimization step
C -2.033224 3.020146 0.131361
C -1.371318 3.025296 0.048040
O -0.765885 3.778852 0.981041
H -2.839161 3.607456 -0.492428
H -2.684884 2.034360 0.258334
H -0.888780 2.260828 -0.832796
H 0.023053 3.065863 -0.093551
7
Debug optimization step
C -2.034098 3.022563 0.132432
C -1.380379 3.029557 0.053462
O -0.761401 3.775140 0.988316
H -2.837227 3.597561 -0.505290
H -2.682668 2.036381 0.265392
H -0.894377 2.269592 -0.838592
H 0.029950 3.062006 -0.095720
7
Debug optimization step
C -2.033926 3.022778 0.132598
C -1.376888 3.030001 0.053628
O -0.761445 3.774606 0.988219
H -2.837263 3.597122 -0.506014
H -2.682683 2.036381 0.265753
H -0.894725 2.270125 -0.838793
H 0.026731 3.061786 -0.095392
7
Debug optimization step
C -2.033710 3.023231 0.132971
C -1.372147 3.030782 0.054050
O -0.761291 3.773656 0.988425
H -2.837210 3.595994 -0.507704
H -2.682586 2.036494 0.266602
H -0.895527 2.271349 -0.839351
H 0.022272 3.061294 -0.094993
7
Debug optimization step
C -2.033712 3.023230 0.133001
C -1.372196 3.030841 0.054069
O -0.761259 3.773626 0.988476
H -2.837194 3.595916 -0.507806
H -2.682569 2.036511 0.266654
H -0.895575 2.271421 -0.839393
H 0.022305 3.061255 -0.095001
7
Debug optimization step
C -2.033717 3.023269 0.132971
C -1.372194 3.030790 0.054119
O -0.761256 3.773622 0.988482
H -2.837192 3.595908 -0.507817
H -2.682567 2.036513 0.266659
H -0.895580 2.271428 -0.839398
H 0.022306 3.061269 -0.095017
7
Debug optimization step
C -2.033716 3.023262 0.132978
C -1.372196 3.030801 0.054110
O -0.761255 3.773622 0.988483
H -2.837192 3.595907 -0.507819
H -2.682567 2.036514 0.266661
H -0.895581 2.271430 -0.839398
H 0.022307 3.061265 -0.095014
7
Debug optimization step
C -2.033714 3.023241 0.133000
C -1.372205 3.030840 0.054085
O -0.761251 3.773618 0.988489
H -2.837190 3.595898 -0.507831
H -2.682565 2.036516 0.266667
H -0.895586 2.271438 -0.839403
H 0.022312 3.061250 -0.095006
7
Debug optimization step
C -2.033714 3.023245 0.132997
C -1.372205 3.030834 0.054091
O -0.761251 3.773617 0.988490
H -2.837190 3.595896 -0.507833
H -2.682565 2.036516 0.266668
H -0.895587 2.271439 -0.839404
H 0.022312 3.061252 -0.095008
7
Debug optimization step
C -2.033717 3.023266 0.132983
C -1.372207 3.030810 0.054119
O -0.761247 3.773614 0.988495
H -2.837188 3.595888 -0.507844
H -2.682563 2.036518 0.266673
H -0.895592 2.271447 -0.839409
H 0.022314 3.061257 -0.095017
7
Debug optimization step
C -2.033716 3.023256 0.132993
C -1.372211 3.030828 0.054108
O -0.761245 3.773612 0.988498
H -2.837187 3.595883 -0.507850
H -2.682562 2.036519 0.266676
H -0.895595 2.271451 -0.839411
H 0.022317 3.061250 -0.095014
7
Debug optimization step
C -2.033720 3.023281 0.132991
C -1.372236 3.030829 0.054152
O -0.761224 3.773591 0.988532
H -2.837177 3.595832 -0.507918
H -2.682550 2.036530 0.266711
H -0.895627 2.271499 -0.839439
H 0.022335 3.061237 -0.095029
7
Debug optimization step
C -2.033718 3.023259 0.133014
C -1.372244 3.030870 0.054125
O -0.761220 3.773588 0.988538
H -2.837175 3.595823 -0.507930
H -2.682548 2.036532 0.266717
H -0.895632 2.271507 -0.839444
H 0.022339 3.061221 -0.095020
7
Debug optimization step
C -2.033718 3.023264 0.133010
C -1.372244 3.030863 0.054132
O -0.761220 3.773587 0.988539
H -2.837175 3.595822 -0.507931
H -2.682548 2.036532 0.266718
H -0.895633 2.271509 -0.839445
H 0.022339 3.061223 -0.095022
7
Debug optimization step
C -2.033721 3.023286 0.132995
C -1.372246 3.030837 0.054162
O -0.761216 3.773584 0.988545
H -2.837173 3.595812 -0.507944
H -2.682546 2.036534 0.266724
H -0.895639 2.271517 -0.839450
H 0.022341 3.061229 -0.095032
7
Debug optimization step
C -2.033720 3.023282 0.132999
C -1.372247 3.030845 0.054157
O -0.761215 3.773583 0.988546
H -2.837173 3.595811 -0.507946
H -2.682546 2.036535 0.266725
H -0.895640 2.271519 -0.839451
H 0.022342 3.061226 -0.095031
7
Debug optimization step
C -2.033719 3.023267 0.133016
C -1.372256 3.030875 0.054141
O -0.761211 3.773579 0.988553
H -2.837171 3.595800 -0.507960
H -2.682543 2.036537 0.266733
H -0.895646 2.271529 -0.839457
H 0.022346 3.061214 -0.095026
7
Debug optimization step
C -2.033719 3.023269 0.133014
C -1.372256 3.030872 0.054144
O -0.761210 3.773578 0.988554
H -2.837170 3.595799 -0.507962
H -2.682543 2.036537 0.266733
H -0.895647 2.271530 -0.839457
H 0.022347 3.061215 -0.095027
7
Debug optimization step
C -2.033721 3.023281 0.133006
C -1.372256 3.030858 0.054160
O -0.761208 3.773576 0.988557
H -2.837169 3.595794 -0.507968
H -2.682542 2.036538 0.266737
H -0.895650 2.271535 -0.839460
H 0.022348 3.061218 -0.095032
7
Debug optimization step
C -2.033721 3.023276 0.133019
C -1.372268 3.030882 0.054158
O -0.761200 3.773568 0.988570
H -2.837165 3.595774 -0.507995
H -2.682538 2.036543 0.266750
H -0.895662 2.271553 -0.839471
H 0.022355 3.061205 -0.095031
7
Debug optimization step
C -2.033723 3.023298 0.133004
C -1.372269 3.030856 0.054188
O -0.761196 3.773564 0.988576
H -2.837163 3.595764 -0.508007
H -2.682536 2.036545 0.266756
H -0.895668 2.271562 -0.839476
H 0.022357 3.061211 -0.095041
7
Debug optimization step
C -2.033723 3.023295 0.133007
C -1.372270 3.030861 0.054185
O -0.761196 3.773564 0.988577
H -2.837163 3.595763 -0.508009
H -2.682535 2.036545 0.266757
H -0.895669 2.271563 -0.839476
H 0.022357 3.061209 -0.095040
7
Debug optimization step
C -2.033722 3.023283 0.133020
C -1.372275 3.030884 0.054171
O -0.761193 3.773561 0.988581
H -2.837162 3.595757 -0.508018
H -2.682534 2.036546 0.266762
H -0.895673 2.271569 -0.839480
H 0.022360 3.061200 -0.095036
7
Debug optimization step
C -2.033724 3.023302 0.133008
C -1.372278 3.030864 0.054198
O -0.761188 3.773556 0.988589
H -2.837160 3.595745 -0.508033
H -2.682531 2.036549 0.266770
H -0.895680 2.271580 -0.839487
H 0.022363 3.061203 -0.095045
7
Debug optimization step
C -2.033724 3.023300 0.133010
C -1.372279 3.030868 0.054196
O -0.761188 3.773556 0.988590
H -2.837159 3.595744 -0.508034
H -2.682531 2.036549 0.266770
H -0.895681 2.271581 -0.839487
H 0.022363 3.061202 -0.095044
7
Debug optimization step
C -2.536630 2.876592 0.010298
C -1.223282 2.797910 -0.091664
O -0.468872 3.824478 0.321901
H -3.011181 3.749205 0.419838
H -3.165650 2.067469 -0.310679
H -0.738631 1.918455 -0.500919
H 0.584048 3.558691 0.151224
7
Debug optimization step
C -2.522920 2.880254 0.011292
C -1.221109 2.799421 -0.091277
O -0.548961 3.842068 0.334403
H -3.011233 3.749603 0.419293
H -3.165562 2.067008 -0.310163
H -0.738615 1.918513 -0.501481
H 0.648201 3.535933 0.137933
7
Debug optimization step
C -2.252515 2.945064 0.027579
C -1.190521 2.818081 -0.086795
O -0.698521 3.846682 0.358194
H -3.010494 3.757015 0.407236
H -3.159737 2.062130 -0.298218
H -0.736501 1.920666 -0.512694
H 0.488092 3.443162 0.104697
7
Debug optimization step
C -1.991970 2.984472 0.050179
C -1.141407 2.812784 -0.100675
O -0.862659 3.923317 0.430866
H -2.985195 3.760944 0.371377
H -3.105658 2.089601 -0.265229
H -0.725271 1.926015 -0.535216
H 0.251961 3.295667 0.048697
7
Debug optimization step
C -1.981812 2.969850 0.055234
C -1.157906 2.821647 -0.097894
O -0.874926 3.949388 0.455263
H -2.965476 3.756454 0.350341
H -3.074548 2.103246 -0.251022
H -0.716142 1.927131 -0.547639
H 0.210610 3.265085 0.035718
7
Debug optimization step
C -1.951583 2.921698 0.081653
C -1.276283 2.858133 -0.071170
O -0.910656 4.032204 0.554758
H -2.870718 3.731300 0.241940
H -2.926586 2.158409 -0.180719
H -0.677448 1.942534 -0.610601
H 0.053075 3.148521 -0.015861
7
Debug optimization step
C -1.985918 2.907598 0.073254
C -1.329548 2.838017 -0.064655
O -0.892613 4.059788 0.574617
H -2.862623 3.728120 0.228341
H -2.913438 2.158672 -0.172726
H -0.678559 1.948965 -0.618119
H 0.102500 3.151639 -0.020712
7
Debug optimization step
C -2.015248 2.886829 -0.008186
C -1.318344 2.932508 -0.061514
O -0.887234 3.989132 0.705509
H -2.868602 3.759615 0.091783
H -2.901583 2.065483 -0.063765
H -0.688620 2.009503 -0.602229
H 0.119433 3.149730 -0.061598
7
Debug optimization step
C -2.012631 2.890309 -0.008049
C -1.311594 2.937055 -0.055353
O -0.888680 3.983150 0.704968
H -2.865347 3.758225 0.086674
H -2.896906 2.065791 -0.060857
H -0.688624 2.011642 -0.604268
H 0.103583 3.146628 -0.063115
7
Debug optimization step
C -2.028288 2.893016 0.008651
C -1.345350 2.952740 -0.028975
O -0.883967 3.968285 0.762378
H -2.832582 3.753019 -0.004988
H -2.825420 2.064874 -0.011184
H -0.702956 2.049227 -0.637049
H 0.058364 3.111639 -0.088833
7
Debug optimization step
C -2.028020 2.892510 0.010186
C -1.345482 2.953791 -0.031041
O -0.884029 3.968081 0.762325
H -2.832563 3.753016 -0.005143
H -2.825365 2.064819 -0.011102
H -0.702997 2.049269 -0.637097
H 0.058257 3.111314 -0.088128
7
Debug optimization step
C -2.028023 2.892974 0.009794
C -1.345359 2.953238 -0.030359
O -0.884055 3.967985 0.762306
H -2.832555 3.753014 -0.005212
H -2.825339 2.064794 -0.011065
H -0.703017 2.049295 -0.637132
H 0.058150 3.111500 -0.088332
7
Debug optimization step
C -2.023535 2.898566 0.013795
C -1.343106 2.955224 -0.028797
O -0.886101 3.960831 0.760729
H -2.831920 3.752877 -0.010557
H -2.823394 2.062878 -0.008214
H -0.704518 2.051042 -0.639340
H 0.052374 3.111382 -0.087616
7
Debug optimization step
C -2.007477 2.924229 0.034152
C -1.350326 2.957483 -0.024172
O -0.891179 3.931913 0.760940
H -2.828381 3.752185 -0.041223
H -2.810843 2.053761 0.007880
H -0.713113 2.060696 -0.652092
H 0.041119 3.112533 -0.085485
7
Debug optimization step
C -2.022062 2.923343 0.039222
C -1.360534 2.944418 -0.030111
O -0.876919 3.940026 0.781360
H -2.827990 3.752418 -0.060992
H -2.801049 2.051903 0.017520
H -0.719319 2.066844 -0.660142
H 0.047674 3.113847 -0.086856
7
Debug optimization step
C -2.019052 2.930452 0.047590
C -1.349790 2.945620 -0.028514
O -0.877073 3.930023 0.782473
H -2.828672 3.752608 -0.074265
H -2.796931 2.049131 0.023904
H -0.723563 2.070858 -0.665772
H 0.034882 3.114107 -0.085416
7
Debug optimization step
C -2.022444 2.943617 0.069225
C -1.381699 2.935090 -0.028151
O -0.865691 3.917086 0.802555
H -2.829494 3.751100 -0.117947
H -2.781183 2.042974 0.044864
H -0.736833 2.083066 -0.684954
H 0.057144 3.119867 -0.085593
7
Debug optimization step
C -2.023555 2.957398 0.089814
C -1.384524 2.937383 -0.021304
O -0.851039 3.899146 0.827603
H -2.831957 3.741729 -0.173741
H -2.765406 2.037228 0.072955
H -0.754832 2.100721 -0.709458
H 0.051115 3.119196 -0.085868
7
Debug optimization step
C -2.031948 2.987970 0.135689
C -1.383796 2.988212 0.026329
O -0.792889 3.828001 0.929216
H -2.845559 3.687965 -0.387491
H -2.710918 2.021430 0.188031
H -0.831185 2.179381 -0.797196
H 0.036096 3.099842 -0.094578
7
Debug optimization step
C -2.031448 2.990669 0.134061
C -1.371457 2.989960 0.026731
O -0.793068 3.825321 0.929520
H -2.844607 3.685029 -0.389835
H -2.710752 2.020928 0.190336
H -0.833630 2.182758 -0.797130
H 0.024763 3.098135 -0.093684
7
Debug optimization step
C -2.032061 3.021152 0.118079
C -1.378199 3.012154 0.023181
O -0.779522 3.793261 0.963163
H -2.825897 3.625081 -0.443703
H -2.695038 2.023061 0.237302
H -0.878765 2.244138 -0.805468
H 0.029282 3.073952 -0.092553
7
Debug optimization step
C -2.031816 3.019903 0.120329
C -1.370671 3.013923 0.026868
O -0.779011 3.790685 0.962659
H -2.829207 3.625138 -0.448668
H -2.693809 2.024730 0.238854
H -0.879113 2.244578 -0.808499
H 0.023428 3.073844 -0.091543
7
Debug optimization step
C -2.032971 3.017223 0.123639
C -1.376755 3.015718 0.033560
O -0.775845 3.788469 0.965841
H -2.834085 3.623912 -0.458400
H -2.690878 2.028257 0.242202
H -0.879915 2.245794 -0.814790
H 0.030250 3.073426 -0.092052
7
Debug optimization step
C -2.032812 3.017287 0.124760
C -1.370615 3.016712 0.034835
O -0.775158 3.787275 0.966644
H -2.835323 3.623003 -0.461708
H -2.690369 2.028863 0.243571
H -0.880518 2.246868 -0.816540
H 0.024597 3.072793 -0.091561
7
Debug optimization step
C -2.034065 3.016694 0.129869
C -1.381942 3.020691 0.044575
O -0.768081 3.783689 0.977223
H -2.840254 3.615347 -0.481835
H -2.685834 2.033651 0.252320
H -0.884278 2.253508 -0.828266
H 0.034256 3.069219 -0.093886
7
Debug optimization step
C -2.033912 3.016905 0.129977
C -1.379756 3.020975 0.044648
O -0.768139 3.783336 0.977134
H -2.840278 3.615093 -0.482238
H -2.685871 2.033612 0.252548
H -0.884456 2.253801 -0.828396
H 0.032213 3.069079 -0.093673
7
Debug optimization step
C -2.033266 3.017911 0.130485
C -1.370595 3.022297 0.045069
O -0.768258 3.781719 0.976974
H -2.840311 3.613715 -0.484325
H -2.685966 2.033489 0.253732
H -0.885367 2.255298 -0.829127
H 0.023563 3.068369 -0.092807
7
Debug optimization step
C -2.033390 3.019524 0.130984
C -1.375973 3.024340 0.047541
O -0.766222 3.779939 0.980552
H -2.839263 3.608908 -0.490342
H -2.685032 2.034224 0.257196
H -0.887851 2.259358 -0.832001
H 0.027531 3.066506 -0.093929
7
Debug optimization step
C -2.033224 3.020146 0.131361
C -1.371318 3.025296 0.048040
O -0.765885 3.778852 0.981041
H -2.839161 3.607456 -0.492428
H -2.684884 2.034360 0.258334
H -0.888780 2.260828 -0.832796
H 0.023053 3.065863 -0.093551
7
Debug optimization step
C -2.034098 3.022563 0.132432
C -1.380379 3.029557 0.053462
O -0.761401 3.775140 0.988316
H -2.837227 3.597561 -0.505290
H -2.682668 2.036381 0.265392
H -0.894377 2.269592 -0.838592
H 0.029950 3.062006 -0.095720
7
Debug optimization step
C -2.033926 3.022778 0.132598
C -1.376888 3.030001 0.053628
O -0.761445 3.774606 0.988219
H -2.837263 3.597122 -0.506014
H -2.682683 2.036381 0.265753
H -0.894725 2.270125 -0.838793
H 0.026731 3.061786 -0.095392
7
Debug optimization step
C -2.033710 3.023231 0.132971
C -1.372147 3.030782 0.054050
O -0.761291 3.773656 0.988425
H -2.837210 3.595994 -0.507704
H -2.682586 2.036494 0.266602
H -0.895527 2.271349 -0.839351
H 0.022272 3.061294 -0.094993
7
Debug optimization step
C -2.033712 3.023230 0.133001
C -1.372196 3.030841 0.054069
O -0.761259 3.773626 0.988476
H -2.837194 3.595916 -0.507806
H -2.682569 2.036511 0.266654
H -0.895575 2.271421 -0.839393
H 0.022305 3.061255 -0.095001
7
Debug optimization step
C -2.033717 3.023269 0.132971
C -1.372194 3.030790 0.054119
O -0.761256 3.773622 0.988482
H -2.837192 3.595908 -0.507817
H -2.682567 2.036513 0.266659
H -0.895580 2.271428 -0.839398
H 0.022306 3.061269 -0.095017
7
Debug optimization step
C -2.033716 3.023262 0.132978
C -1.372196 3.030801 0.054110
O -0.761255 3.773622 0.988483
H -2.837192 3.595907 -0.507819
H -2.682567 2.036514 0.266661
H -0.895581 2.271430 -0.839398
H 0.022307 3.061265 -0.095014
7
Debug optimization step
C -2.033714 3.023241 0.133000
C -1.372205 3.030840 0.054085
O -0.761251 3.773618 0.988489
H -2.837190 3.595898 -0.507831
H -2.682565 2.036516 0.266667
H -0.895586 2.271438 -0.839403
H 0.022312 3.061250 -0.095006
7
Debug optimization step
C -2.033714 3.023245 0.132997
C -1.372205 3.030834 0.054091
O -0.761251 3.773617 0.988490
H -2.837190 3.595896 -0.507833
H -2.682565 2.036516 0.266668
H -0.895587 2.271439 -0.839404
H 0.022312 3.061252 -0.095008
7
Debug optimization step
C -2.033717 3.023266 0.132983
C -1.372207 3.030810 0.054119
O -0.761247 3.773614 0.988495
H -2.837188 3.595888 -0.507844
H -2.682563 2.036518 0.266673
H -0.895592 2.271447 -0.839409
H 0.022314 3.061257 -0.095017
7
Debug optimization step
C -2.033716 3.023256 0.132993
C -1.372211 3.030828 0.054108
O -0.761245 3.773612 0.988498
H -2.837187 3.595883 -0.507850
H -2.682562 2.036519 0.266676
H -0.895595 2.271451 -0.839411
H 0.022317 3.061250 -0.095014
7
Debug optimization step
C -2.033720 3.023281 0.132991
C -1.372236 3.030829 0.054152
O -0.761224 3.773591 0.988532
H -2.837177 3.595832 -0.507918
H -2.682550 2.036530 0.266711
H -0.895627 2.271499 -0.839439
H 0.022335 3.061237 -0.095029
7
Debug optimization step
C -2.033718 3.023259 0.133014
C -1.372244 3.030870 0.054125
O -0.761220 3.773588 0.988538
H -2.837175 3.595823 -0.507930
H -2.682548 2.036532 0.266717
H -0.895632 2.271507 -0.839444
H 0.022339 3.061221 -0.095020
7
Debug optimization step
C -2.033718 3.023264 0.133010
C -1.372244 3.030863 0.054132
O -0.761220 3.773587 0.988539
H -2.837175 3.595822 -0.507931
H -2.682548 2.036532 0.266718
H -0.895633 2.271509 -0.839445
H 0.022339 3.061223 -0.095022
7
Debug optimization step
C -2.033721 3.023286 0.132995
C -1.372246 3.030837 0.054162
O -0.761216 3.773584 0.988545
H -2.837173 3.595812 -0.507944
H -2.682546 2.036534 0.266724
H -0.895639 2.271517 -0.839450
H 0.022341 3.061229 -0.095032
7
Debug optimization step
C -2.033720 3.023282 0.132999
C -1.372247 3.030845 0.054157
O -0.761215 3.773583 0.988546
H -2.837173 3.595811 -0.507946
H -2.682546 2.036535 0.266725
H -0.895640 2.271519 -0.839451
H 0.022342 3.061226 -0.095031
7
Debug optimization step
C -2.033719 3.023267 0.133016
C -1.372256 3.030875 0.054141
O -0.761211 3.773579 0.988553
H -2.837171 3.595800 -0.507960
H -2.682543 2.036537 0.266733
H -0.895646 2.271529 -0.839457
H 0.022346 3.061214 -0.095026
7
Debug optimization step
C -2.033719 3.023269 0.133014
C -1.372256 3.030872 0.054144
O -0.761210 3.773578 0.988554
H -2.837170 3.595799 -0.507962
H -2.682543 2.036537 0.266733
H -0.895647 2.271530 -0.839457
H 0.022347 3.061215 -0.095027
7
Debug optimization step
C -2.033721 3.023281 0.133006
C -1.372256 3.030858 0.054160
O -0.761208 3.773576 0.988557
H -2.837169 3.595794 -0.507968
H -2.682542 2.036538 0.266737
H -0.895650 2.271535 -0.839460
H 0.022348 3.061218 -0.095032
7
Debug optimization step
C -2.033721 3.023276 0.133019
C -1.372268 3.030882 0.054158
O -0.761200 3.773568 0.988570
H -2.837165 3.595774 -0.507995
H -2.682538 2.036543 0.266750
H -0.895662 2.271553 -0.839471
H 0.022355 3.061205 -0.095031
7
Debug optimization step
C -2.033723 3.023298 0.133004
C -1.372269 3.030856 0.054188
O -0.761196 3.773564 0.988576
H -2.837163 3.595764 -0.508007
H -2.682536 2.036545 0.266756
H -0.895668 2.271562 -0.839476
H 0.022357 3.061211 -0.095041
7
Debug optimization step
C -2.033723 3.023295 0.133007
C -1.372270 3.030861 0.054185
O -0.761196 3.773564 0.988577
H -2.837163 3.595763 -0.508009
H -2.682535 2.036545 0.266757
H -0.895669 2.271563 -0.839476
H 0.022357 3.061209 -0.095040
7
Debug optimization step
C -2.033722 3.023283 0.133020
C -1.372275 3.030884 0.054171
O -0.761193 3.773561 0.988581
H -2.837162 3.595757 -0.508018
H -2.682534 2.036546 0.266762
H -0.895673 2.271569 -0.839480
H 0.022360 3.061200 -0.095036
7
Debug optimization step
C -2.033724 3.023302 0.133008
C -1.372278 3.030864 0.054198
O -0.761188 3.773556 0.988589
H -2.837160 3.595745 -0.508033
H -2.682531 2.036549 0.266770
H -0.895680 2.271580 -0.839487
H 0.022363 3.061203 -0.095045
7
Debug optimization step
C -2.033724 3.023300 0.133010
C -1.372279 3.030868 0.054196
O -0.761188 3.773556 0.988590
H -2.837159 3.595744 -0.508034
H -2.682531 2.036549 0.266770
H -0.895681 2.271581 -0.839487
H 0.022363 3.061202 -0.095044
7
Debug optimization step
C -2.536630 2.876592 0.010298
C -1.223282 2.797910 -0.091664
O -0.468872 3.824478 0.321901
H -3.011181 3.749205 0.419838
H -3.165650 2.067469 -0.310679
H -0.738631 1.918455 -0.500919
H 0.584048 3.558691 0.151224
7
Debug optimization step
C -2.522920 2.880254 0.011292
C -1.221109 2.799421 -0.091277
O -0.548961 3.842068 0.334403
H -3.011233 3.749603 0.419293
H -3.165562 2.067008 -0.310163
H -0.738615 1.918513 -0.501481
H 0.648201 3.535933 0.137933
7
Debug optimization step
C -2.252515 2.945064 0.027579
C -1.190521 2.818081 -0.086795
O -0.698521 3.846682 0.358194
H -3.010494 3.757015 0.407236
H -3.159737 2.062130 -0.298218
H -0.736501 1.920666 -0.512694
H 0.488092 3.443162 0.104697
7
Debug optimization step
C -1.991970 2.984472 0.050179
C -1.141407 2.812784 -0.100675
O -0.862659 3.923317 0.430866
H -2.985195 3.760944 0.371377
H -3.105658 2.089601 -0.265229
H -0.725271 1.926015 -0.535216
H 0.251961 3.295667 0.048697
7
Debug optimization step
C -1.981812 2.969850 0.055234
C -1.157906 2.821647 -0.097894
O -0.874926 3.949388 0.455263
H -2.965476 3.756454 0.350341
H -3.074548 2.103246 -0.251022
H -0.716142 1.927131 -0.547639
H 0.210610 3.265085 0.035718
7
Debug optimization step
C -1.951583 2.921698 0.081653
C -1.276283 2.858133 -0.071170
O -0.910656 4.032204 0.554758
H -2.870718 3.731300 0.241940
H -2.926586 2.158409 -0.180719
H -0.677448 1.942534 -0.610601
H 0.053075 3.148521 -0.015861
7
Debug optimization step
C -1.985918 2.907598 0.073254
C -1.329548 2.838017 -0.064655
O -0.892613 4.059788 0.574617
H -2.862623 3.728120 0.228341
H -2.913438 2.158672 -0.172726
H -0.678559 1.948965 -0.618119
H 0.102500 3.151639 -0.020712
7
Debug optimization step
C -2.015248 2.886829 -0.008186
C -1.318344 2.932508 -0.061514
O -0.887234 3.989132 0.705509
H -2.868602 3.759615 0.091783
H -2.901583 2.065483 -0.063765
H -0.688620 2.009503 -0.602229
H 0.119433 3.149730 -0.061598
7
Debug optimization step
C -2.012631 2.890309 -0.008049
C -1.311594 2.937055 -0.055353
O -0.888680 3.983150 0.704968
H -2.865347 3.758225 0.086674
H -2.896906 2.065791 -0.060857
H -0.688624 2.011642 -0.604268
H 0.103583 3.146628 -0.063115
7
Debug optimization step
C -2.028288 2.893016 0.008651
C -1.345350 2.952740 -0.028975
O -0.883967 3.968285 0.762378
H -2.832582 3.753019 -0.004988
H -2.825420 2.064874 -0.011184
H -0.702956 2.049227 -0.637049
H 0.058364 3.111639 -0.088833
7
Debug optimization step
C -2.028020 2.892510 0.010186
C -1.345482 2.953791 -0.031041
O -0.884029 3.968081 0.762325
H -2.832563 3.753016 -0.005143
H -2.825365 2.064819 -0.011102
H -0.702997 2.049269 -0.637097
H 0.058257 3.111314 -0.088128
7
Debug optimization step
C -2.028023 2.892974 0.009794
C -1.345359 2.953238 -0.030359
O -0.884055 3.967985 0.762306
H -2.832555 3.753014 -0.005212
H -2.825339 2.064794 -0.011065
H -0.703017 2.049295 -0.637132
H 0.058150 3.111500 -0.088332
7
Debug optimization step
C -2.023535 2.898566 0.013795
C -1.343106 2.955224 -0.028797
O -0.886101 3.960831 0.760729
H -2.831920 3.752877 -0.010557
H -2.823394 2.062878 -0.008214
H -0.704518 2.051042 -0.639340
H 0.052374 3.111382 -0.087616
7
Debug optimization step
C -2.007477 2.924229 0.034152
C -1.350326 2.957483 -0.024172
O -0.891179 3.931913 0.760940
H -2.828381 3.752185 -0.041223
H -2.810843 2.053761 0.007880
H -0.713113 2.060696 -0.652092
H 0.041119 3.112533 -0.085485
7
Debug optimization step
C -2.022062 2.923343 0.039222
C -1.360534 2.944418 -0.030111
O -0.876919 3.940026 0.781360
H -2.827990 3.752418 -0.060992
H -2.801049 2.051903 0.017520
H -0.719319 2.066844 -0.660142
H 0.047674 3.113847 -0.086856
7
Debug optimization step
C -2.019052 2.930452 0.047590
C -1.349790 2.945620 -0.028514
O -0.877073 3.930023 0.782473
H -2.828672 3.752608 -0.074265
H -2.796931 2.049131 0.023904
H -0.723563 2.070858 -0.665772
H 0.034882 3.114107 -0.085416
7
Debug optimization step
C -2.022444 2.943617 0.069225
C -1.381699 2.935090 -0.028151
O -0.865691 3.917086 0.802555
H -2.829494 3.751100 -0.117947
H -2.781183 2.042974 0.044864
H -0.736833 2.083066 -0.684954
H 0.057144 3.119867 -0.085593
7
Debug optimization step
C -2.023555 2.957398 0.089814
C -1.384524 2.937383 -0.021304
O -0.851039 3.899146 0.827603
H -2.831957 3.741729 -0.173741
H -2.765406 2.037228 0.072955
H -0.754832 2.100721 -0.709458
H 0.051115 3.119196 -0.085868
7
Debug optimization step
C -2.031948 2.987970 0.135689
C -1.383796 2.988212 0.026329
O -0.792889 3.828001 0.929216
H -2.845559 3.687965 -0.387491
H -2.710918 2.021430 0.188031
H -0.831185 2.179381 -0.797196
H 0.036096 3.099842 -0.094578
7
Debug optimization step
C -2.031448 2.990669 0.134061
C -1.371457 2.989960 0.026731
O -0.793068 3.825321 0.929520
H -2.844607 3.685029 -0.389835
H -2.710752 2.020928 0.190336
H -0.833630 2.182758 -0.797130
H 0.024763 3.098135 -0.093684
7
Debug optimization step
C -2.032061 3.021152 0.118079
C -1.378199 3.012154 0.023181
O -0.779522 3.793261 0.963163
H -2.825897 3.625081 -0.443703
H -2.695038 2.023061 0.237302
H -0.878765 2.244138 -0.805468
H 0.029282 3.073952 -0.092553
7
Debug optimization step
C -2.031816 3.019903 0.120329
C -1.370671 3.013923 0.026868
O -0.779011 3.790685 0.962659
H -2.829207 3.625138 -0.448668
H -2.693809 2.024730 0.238854
H -0.879113 2.244578 -0.808499
H 0.023428 3.073844 -0.091543
7
Debug optimization step
C -2.032971 3.017223 0.123639
C -1.376755 3.015718 0.033560
O -0.775845 3.788469 0.965841
H -2.834085 3.623912 -0.458400
H -2.690878 2.028257 0.242202
H -0.879915 2.245794 -0.814790
H 0.030250 3.073426 -0.092052
7
Debug optimization step
C -2.032812 3.017287 0.124760
C -1.370615 3.016712 0.034835
O -0.775158 3.787275 0.966644
H -2.835323 3.623003 -0.461708
H -2.690369 2.028863 0.243571
H -0.880518 2.246868 -0.816540
H 0.024597 3.072793 -0.091561
7
Debug optimization step
C -2.034065 3.016694 0.129869
C -1.381942 3.020691 0.044575
O -0.768081 3.783689 0.977223
H -2.840254 3.615347 -0.481835
H -2.685834 2.033651 0.252320
H -0.884278 2.253508 -0.828266
H 0.034256 3.069219 -0.093886
7
Debug optimization step
C -2.033912 3.016905 0.129977
C -1.379756 3.020975 0.044648
O -0.768139 3.783336 0.977134
H -2.840278 3.615093 -0.482238
H -2.685871 2.033612 0.252548
H -0.884456 2.253801 -0.828396
H 0.032213 3.069079 -0.093673
7
Debug optimization step
C -2.033266 3.017911 0.130485
C -1.370595 3.022297 0.045069
O -0.768258 3.781719 0.976974
H -2.840311 3.613715 -0.484325
H -2.685966 2.033489 0.253732
H -0.885367 2.255298 -0.829127
H 0.023563 3.068369 -0.092807
7
Debug optimization step
C -2.033390 3.019524 0.130984
C -1.375973 3.024340 0.047541
O -0.766222 3.779939 0.980552
H -2.839263 3.608908 -0.490342
H -2.685032 2.034224 0.257196
H -0.887851 2.259358 -0.832001
H 0.027531 3.066506 -0.093929
7
Debug optimization step
C -2.033224 3.020146 0.131361
C -1.371318 3.025296 0.048040
O -0.765885 3.778852 0.981041
H -2.839161 3.607456 -0.492428
H -2.684884 2.034360 0.258334
H -0.888780 2.260828 -0.832796
H 0.023053 3.065863 -0.093551
7
Debug optimization step
C -2.034098 3.022563 0.132432
C -1.380379 3.029557 0.053462
O -0.761401 3.775140 0.988316
H -2.837227 3.597561 -0.505290
H -2.682668 2.036381 0.265392
H -0.894377 2.269592 -0.838592
H 0.029950 3.062006 -0.095720
7
Debug optimization step
C -2.033926 3.022778 0.132598
C -1.376888 3.030001 0.053628
O -0.761445 3.774606 0.988219
H -2.837263 3.597122 -0.506014
H -2.682683 2.036381 0.265753
H -0.894725 2.270125 -0.838793
H 0.026731 3.061786 -0.095392
7
Debug optimization step
C -2.033710 3.023231 0.132971
C -1.372147 3.030782 0.054050
O -0.761291 3.773656 0.988425
H -2.837210 3.595994 -0.507704
H -2.682586 2.036494 0.266602
H -0.895527 2.271349 -0.839351
H 0.022272 3.061294 -0.094993
7
Debug optimization step
C -2.033712 3.023230 0.133001
C -1.372196 3.030841 0.054069
O -0.761259 3.773626 0.988476
H -2.837194 3.595916 -0.507806
H -2.682569 2.036511 0.266654
H -0.895575 2.271421 -0.839393
H 0.022305 3.061255 -0.095001
7
Debug optimization step
C -2.033717 3.023269 0.132971
C -1.372194 3.030790 0.054119
O -0.761256 3.773622 0.988482
H -2.837192 3.595908 -0.507817
H -2.682567 2.036513 0.266659
H -0.895580 2.271428 -0.839398
H 0.022306 3.061269 -0.095017
7
Debug optimization step
C -2.033716 3.023262 0.132978
C -1.372196 3.030801 0.054110
O -0.761255 3.773622 0.988483
H -2.837192 3.595907 -0.507819
H -2.682567 2.036514 0.266661
H -0.895581 2.271430 -0.839398
H 0.022307 3.061265 -0.095014
7
Debug optimization step
C -2.033714 3.023241 0.133000
C -1.372205 3.030840 0.054085
O -0.761251 3.773618 0.988489
H -2.837190 3.595898 -0.507831
H -2.682565 2.036516 0.266667
H -0.895586 2.271438 -0.839403
H 0.022312 3.061250 -0.095006
7
Debug optimization step
C -2.033714 3.023245 0.132997
C -1.372205 3.030834 0.054091
O -0.761251 3.773617 0.988490
H -2.837190 3.595896 -0.507833
H -2.682565 2.036516 0.266668
H -0.895587 2.271439 -0.839404
H 0.022312 3.061252 -0.095008
7
Debug optimization step
C -2.033717 3.023266 0.132983
C -1.372207 3.030810 0.054119
O -0.761247 3.773614 0.988495
H -2.837188 3.595888 -0.507844
H -2.682563 2.036518 0.266673
H -0.895592 2.271447 -0.839409
H 0.022314 3.061257 -0.095017
7
Debug optimization step
C -2.033716 3.023256 0.132993
C -1.372211 3.030828 0.054108
O -0.761245 3.773612 0.988498
H -2.837187 3.595883 -0.507850
H -2.682562 2.036519 0.266676
H -0.895595 2.271451 -0.839411
H 0.022317 3.061250 -0.095014
7
Debug optimization step
C -2.033720 3.023281 0.132991
C -1.372236 3.030829 0.054152
O -0.761224 3.773591 0.988532
H -2.837177 3.595832 -0.507918
H -2.682550 2.036530 0.266711
H -0.895627 2.271499 -0.839439
H 0.022335 3.061237 -0.095029
7
Debug optimization step
C -2.033718 3.023259 0.133014
C -1.372244 3.030870 0.054125
O -0.761220 3.773588 0.988538
H -2.837175 3.595823 -0.507930
H -2.682548 2.036532 0.266717
H -0.895632 2.271507 -0.839444
H 0.022339 3.061221 -0.095020
7
Debug optimization step
C -2.033718 3.023264 0.133010
C -1.372244 3.030863 0.054132
O -0.761220 3.773587 0.988539
H -2.837175 3.595822 -0.507931
H -2.682548 2.036532 0.266718
H -0.895633 2.271509 -0.839445
H 0.022339 3.061223 -0.095022
7
Debug optimization step
C -2.033721 3.023286 0.132995
C -1.372246 3.030837 0.054162
O -0.761216 3.773584 0.988545
H -2.837173 3.595812 -0.507944
H -2.682546 2.036534 0.266724
H -0.895639 2.271517 -0.839450
H 0.022341 3.061229 -0.095032
7
Debug optimization step
C -2.033720 3.023282 0.132999
C -1.372247 3.030845 0.054157
O -0.761215 3.773583 0.988546
H -2.837173 3.595811 -0.507946
H -2.682546 2.036535 0.266725
H -0.895640 2.271519 -0.839451
H 0.022342 3.061226 -0.095031
7
Debug optimization step
C -2.033719 3.023267 0.133016
C -1.372256 3.030875 0.054141
O -0.761211 3.773579 0.988553
H -2.837171 3.595800 -0.507960
H -2.682543 2.036537 0.266733
H -0.895646 2.271529 -0.839457
H 0.022346 3.061214 -0.095026
7
Debug optimization step
C -2.033719 3.023269 0.133014
C -1.372256 3.030872 0.054144
O -0.761210 3.773578 0.988554
H -2.837170 3.595799 -0.507962
H -2.682543 2.036537 0.266733
H -0.895647 2.271530 -0.839457
H 0.022347 3.061215 -0.095027
7
Debug optimization step
C -2.033721 3.023281 0.133006
C -1.372256 3.030858 0.054160
O -0.761208 3.773576 0.988557
H -2.837169 3.595794 -0.507968
H -2.682542 2.036538 0.266737
H -0.895650 2.271535 -0.839460
H 0.022348 3.061218 -0.095032
7
Debug optimization step
C -2.033721 3.023276 0.133019
C -1.372268 3.030882 0.054158
O -0.761200 3.773568 0.988570
H -2.837165 3.595774 -0.507995
H -2.682538 2.036543 0.266750
H -0.895662 2.271553 -0.839471
H 0.022355 3.061205 -0.095031
7
Debug optimization step
C -2.033723 3.023298 0.133004
C -1.372269 3.030856 0.054188
O -0.761196 3.773564 0.988576
H -2.837163 3.595764 -0.508007
H -2.682536 2.036545 0.266756
H -0.895668 2.271562 -0.839476
H 0.022357 3.061211 -0.095041
7
Debug optimization step
C -2.033723 3.023295 0.133007
C -1.372270 3.030861 0.054185
O -0.761196 3.773564 0.988577
H -2.837163 3.595763 -0.508009
H -2.682535 2.036545 0.266757
H -0.895669 2.271563 -0.839476
H 0.022357 3.061209 -0.095040
7
Debug optimization step
C -2.033722 3.023283 0.133020
C -1.372275 3.030884 0.054171
O -0.761193 3.773561 0.988581
H -2.837162 3.595757 -0.508018
H -2.682534 2.036546 0.266762
H -0.895673 2.271569 -0.839480
H 0.022360 3.061200 -0.095036
7
Debug optimization step
C -2.033724 3.023302 0.133008
C -1.372278 3.030864 0.054198
O -0.761188 3.773556 0.988589
H -2.837160 3.595745 -0.508033
H -2.682531 2.036549 0.266770
H -0.895680 2.271580 -0.839487
H 0.022363 3.061203 -0.095045
7
Debug optimization step
C -2.033724 3.023300 0.133010
C -1.372279 3.030868 0.054196
O -0.761188 3.773556 0.988590
H -2.837159 3.595744 -0.508034
H -2.682531 2.036549 0.266770
H -0.895681 2.271581 -0.839487
H 0.022363 3.061202 -0.095044
7
Debug optimization step
C -2.536630 2.876592 0.010298
C -1.223282 2.797910 -0.091664
O -0.468872 3.824478 0.321901
H -3.011181 3.749205 0.419838
H -3.165650 2.067469 -0.310679
H -0.738631 1.918455 -0.500919
H 0.584048 3.558691 0.151224
7
Debug optimization step
C -2.522920 2.880254 0.011292
C -1.221109 2.799421 -0.091277
O -0.548961 3.842068 0.334403
H -3.011233 3.749603 0.419293
H -3.165562 2.067008 -0.310163
H -0.738615 1.918513 -0.501481
H 0.648201 3.535933 0.137933
7
Debug optimization step
C -2.252515 2.945064 0.027579
C -1.190521 2.818081 -0.086795
O -0.698521 3.846682 0.358194
H -3.010494 3.757015 0.407236
H -3.159737 2.062130 -0.298218
H -0.736501 1.920666 -0.512694
H 0.488092 3.443162 0.104697
7
Debug optimization step
C -1.991970 2.984472 0.050179
C -1.141407 2.812784 -0.100675
O -0.862659 3.923317 0.430866
H -2.985195 3.760944 0.371377
H -3.105658 2.089601 -0.265229
H -0.725271 1.926015 -0.535216
H 0.251961 3.295667 0.048697
7
Debug optimization step
C -1.981812 2.969850 0.055234
C -1.157906 2.821647 -0.097894
O -0.874926 3.949388 0.455263
H -2.965476 3.756454 0.350341
H -3.074548 2.103246 -0.251022
H -0.716142 1.927131 -0.547639
H 0.210610 3.265085 0.035718
7
Debug optimization step
C -1.951583 2.921698 0.081653
C -1.276283 2.858133 -0.071170
O -0.910656 4.032204 0.554758
H -2.870718 3.731300 0.241940
H -2.926586 2.158409 -0.180719
H -0.677448 1.942534 -0.610601
H 0.053075 3.148521 -0.015861
7
Debug optimization step
C -1.985918 2.907598 0.073254
C -1.329548 2.838017 -0.064655
O -0.892613 4.059788 0.574617
H -2.862623 3.728120 0.228341
H -2.913438 2.158672 -0.172726
H -0.678559 1.948965 -0.618119
H 0.102500 3.151639 -0.020712
7
Debug optimization step
C -2.015248 2.886829 -0.008186
C -1.318344 2.932508 -0.061514
O -0.887234 3.989132 0.705509
H -2.868602 3.759615 0.091783
H -2.901583 2.065483 -0.063765
H -0.688620 2.009503 -0.602229
H 0.119433 3.149730 -0.061598
7
Debug optimization step
C -2.012631 2.890309 -0.008049
C -1.311594 2.937055 -0.055353
O -0.888680 3.983150 0.704968
H -2.865347 3.758225 0.086674
H -2.896906 2.065791 -0.060857
H -0.688624 2.011642 -0.604268
H 0.103583 3.146628 -0.063115
7
Debug optimization step
C -2.028288 2.893016 0.008651
C -1.345350 2.952740 -0.028975
O -0.883967 3.968285 0.762378
H -2.832582 3.753019 -0.004988
H -2.825420 2.064874 -0.011184
H -0.702956 2.049227 -0.637049
H 0.058364 3.111639 -0.088833
7
Debug optimization step
C -2.028020 2.892510 0.010186
C -1.345482 2.953791 -0.031041
O -0.884029 3.968081 0.762325
H -2.832563 3.753016 -0.005143
H -2.825365 2.064819 -0.011102
H -0.702997 2.049269 -0.637097
H 0.058257 3.111314 -0.088128
7
Debug optimization step
C -2.028023 2.892974 0.009794
C -1.345359 2.953238 -0.030359
O -0.884055 3.967985 0.762306
H -2.832555 3.753014 -0.005212
H -2.825339 2.064794 -0.011065
H -0.703017 2.049295 -0.637132
H 0.058150 3.111500 -0.088332
7
Debug optimization step
C -2.023535 2.898566 0.013795
C -1.343106 2.955224 -0.028797
O -0.886101 3.960831 0.760729
H -2.831920 3.752877 -0.010557
H -2.823394 2.062878 -0.008214
H -0.704518 2.051042 -0.639340
H 0.052374 3.111382 -0.087616
7
Debug optimization step
C -2.007477 2.924229 0.034152
C -1.350326 2.957483 -0.024172
O -0.891179 3.931913 0.760940
H -2.828381 3.752185 -0.041223
H -2.810843 2.053761 0.007880
H -0.713113 2.060696 -0.652092
H 0.041119 3.112533 -0.085485
7
Debug optimization step
C -2.022062 2.923343 0.039222
C -1.360534 2.944418 -0.030111
O -0.876919 3.940026 0.781360
H -2.827990 3.752418 -0.060992
H -2.801049 2.051903 0.017520
H -0.719319 2.066844 -0.660142
H 0.047674 3.113847 -0.086856
7
Debug optimization step
C -2.019052 2.930452 0.047590
C -1.349790 2.945620 -0.028514
O -0.877073 3.930023 0.782473
H -2.828672 3.752608 -0.074265
H -2.796931 2.049131 0.023904
H -0.723563 2.070858 -0.665772
H 0.034882 3.114107 -0.085416
7
Debug optimization step
C -2.022444 2.943617 0.069225
C -1.381699 2.935090 -0.028151
O -0.865691 3.917086 0.802555
H -2.829494 3.751100 -0.117947
H -2.781183 2.042974 0.044864
H -0.736833 2.083066 -0.684954
H 0.057144 3.119867 -0.085593
7
Debug optimization step
C -2.023555 2.957398 0.089814
C -1.384524 2.937383 -0.021304
O -0.851039 3.899146 0.827603
H -2.831957 3.741729 -0.173741
H -2.765406 2.037228 0.072955
H -0.754832 2.100721 -0.709458
H 0.051115 3.119196 -0.085868
7
Debug optimization step
C -2.031948 2.987970 0.135689
C -1.383796 2.988212 0.026329
O -0.792889 3.828001 0.929216
H -2.845559 3.687965 -0.387491
H -2.710918 2.021430 0.188031
H -0.831185 2.179381 -0.797196
H 0.036096 3.099842 -0.094578
7
Debug optimization step
C -2.031448 2.990669 0.134061
C -1.371457 2.989960 0.026731
O -0.793068 3.825321 0.929520
H -2.844607 3.685029 -0.389835
H -2.710752 2.020928 0.190336
H -0.833630 2.182758 -0.797130
H 0.024763 3.098135 -0.093684
7
Debug optimization step
C -2.032061 3.021152 0.118079
C -1.378199 3.012154 0.023181
O -0.779522 3.793261 0.963163
H -2.825897 3.625081 -0.443703
H -2.695038 2.023061 0.237302
H -0.878765 2.244138 -0.805468
H 0.029282 3.073952 -0.092553
7
Debug optimization step
C -2.031816 3.019903 0.120329
C -1.370671 3.013923 0.026868
O -0.779011 3.790685 0.962659
H -2.829207 3.625138 -0.448668
H -2.693809 2.024730 0.238854
H -0.879113 2.244578 -0.808499
H 0.023428 3.073844 -0.091543
7
Debug optimization step
C -2.032971 3.017223 0.123639
C -1.376755 3.015718 0.033560
O -0.775845 3.788469 0.965841
H -2.834085 3.623912 -0.458400
H -2.690878 2.028257 0.242202
H -0.879915 2.245794 -0.814790
H 0.030250 3.073426 -0.092052
7
Debug optimization step
C -2.032812 3.017287 0.124760
C -1.370615 3.016712 0.034835
O -0.775158 3.787275 0.966644
H -2.835323 3.623003 -0.461708
H -2.690369 2.028863 0.243571
H -0.880518 2.246868 -0.816540
H 0.024597 3.072793 -0.091561
7
Debug optimization step
C -2.034065 3.016694 0.129869
C -1.381942 3.020691 0.044575
O -0.768081 3.783689 0.977223
H -2.840254 3.615347 -0.481835
H -2.685834 2.033651 0.252320
H -0.884278 2.253508 -0.828266
H 0.034256 3.069219 -0.093886
7
Debug optimization step
C -2.033912 3.016905 0.129977
C -1.379756 3.020975 0.044648
O -0.768139 3.783336 0.977134
H -2.840278 3.615093 -0.482238
H -2.685871 2.033612 0.252548
H -0.884456 2.253801 -0.828396
H 0.032213 3.069079 -0.093673
7
Debug optimization step
C -2.033266 3.017911 0.130485
C -1.370595 3.022297 0.045069
O -0.768258 3.781719 0.976974
H -2.840311 3.613715 -0.484325
H -2.685966 2.033489 0.253732
H -0.885367 2.255298 -0.829127
H 0.023563 3.068369 -0.092807
7
Debug optimization step
C -2.033390 3.019524 0.130984
C -1.375973 3.024340 0.047541
O -0.766222 3.779939 0.980552
H -2.839263 3.608908 -0.490342
H -2.685032 2.034224 0.257196
H -0.887851 2.259358 -0.832001
H 0.027531 3.066506 -0.093929
7
Debug optimization step
C -2.033224 3.020146 0.131361
C -1.371318 3.025296 0.048040
O -0.765885 3.778852 0.981041
H -2.839161 3.607456 -0.492428
H -2.684884 2.034360 0.258334
H -0.888780 2.260828 -0.832796
H 0.023053 3.065863 -0.093551
7
Debug optimization step
C -2.034098 3.022563 0.132432
C -1.380379 3.029557 0.053462
O -0.761401 3.775140 0.988316
H -2.837227 3.597561 -0.505290
H -2.682668 2.036381 0.265392
H -0.894377 2.269592 -0.838592
H 0.029950 3.062006 -0.095720
7
Debug optimization step
C -2.033926 3.022778 0.132598
C -1.376888 3.030001 0.053628
O -0.761445 3.774606 0.988219
H -2.837263 3.597122 -0.506014
H -2.682683 2.036381 0.265753
H -0.894725 2.270125 -0.838793
H 0.026731 3.061786 -0.095392
7
Debug optimization step
C -2.033710 3.023231 0.132971
C -1.372147 3.030782 0.054050
O -0.761291 3.773656 0.988425
H -2.837210 3.595994 -0.507704
H -2.682586 2.036494 0.266602
H -0.895527 2.271349 -0.839351
H 0.022272 3.061294 -0.094993
7
Debug optimization step
C -2.033712 3.023230 0.133001
C -1.372196 3.030841 0.054069
O -0.761259 3.773626 0.988476
H -2.837194 3.595916 -0.507806
H -2.682569 2.036511 0.266654
H -0.895575 2.271421 -0.839393
H 0.022305 3.061255 -0.095001
7
Debug optimization step
C -2.033717 3.023269 0.132971
C -1.372194 3.030790 0.054119
O -0.761256 3.773622 0.988482
H -2.837192 3.595908 -0.507817
H -2.682567 2.036513 0.266659
H -0.895580 2.271428 -0.839398
H 0.022306 3.061269 -0.095017
7
Debug optimization step
C -2.033716 3.023262 0.132978
C -1.372196 3.030801 0.054110
O -0.761255 3.773622 0.988483
H -2.837192 3.595907 -0.507819
H -2.682567 2.036514 0.266661
H -0.895581 2.271430 -0.839398
H 0.022307 3.061265 -0.095014
7
Debug optimization step
C -2.033714 3.023241 0.133000
C -1.372205 3.030840 0.054085
O -0.761251 3.773618 0.988489
H -2.837190 3.595898 -0.507831
H -2.682565 2.036516 0.266667
H -0.895586 2.271438 -0.839403
H 0.022312 3.061250 -0.095006
7
Debug optimization step
C -2.033714 3.023245 0.132997
C -1.372205 3.030834 0.054091
O -0.761251 3.773617 0.988490
H -2.837190 3.595896 -0.507833
H -2.682565 2.036516 0.266668
H -0.895587 2.271439 -0.839404
H 0.022312 3.061252 -0.095008
7
Debug optimization step
C -2.033717 3.023266 0.132983
C -1.372207 3.030810 0.054119
O -0.761247 3.773614 0.988495
H -2.837188 3.595888 -0.507844
H -2.682563 2.036518 0.266673
H -0.895592 2.271447 -0.839409
H 0.022314 3.061257 -0.095017
7
Debug optimization step
C -2.033716 3.023256 0.132993
C -1.372211 3.030828 0.054108
O -0.761245 3.773612 0.988498
H -2.837187 3.595883 -0.507850
H -2.682562 2.036519 0.266676
H -0.895595 2.271451 -0.839411
H 0.022317 3.061250 -0.095014
7
Debug optimization step
C -2.033720 3.023281 0.132991
C -1.372236 3.030829 0.054152
O -0.761224 3.773591 0.988532
H -2.837177 3.595832 -0.507918
H -2.682550 2.036530 0.266711
H -0.895627 2.271499 -0.839439
H 0.022335 3.061237 -0.095029
7
Debug optimization step
C -2.033718 3.023259 0.133014
C -1.372244 3.030870 0.054125
O -0.761220 3.773588 0.988538
H -2.837175 3.595823 -0.507930
H -2.682548 2.036532 0.266717
H -0.895632 2.271507 -0.839444
H 0.022339 3.061221 -0.095020
7
Debug optimization step
C -2.033718 3.023264 0.133010
C -1.372244 3.030863 0.054132
O -0.761220 3.773587 0.988539
H -2.837175 3.595822 -0.507931
H -2.682548 2.036532 0.266718
H -0.895633 2.271509 -0.839445
H 0.022339 3.061223 -0.095022
7
Debug optimization step
C -2.033721 3.023286 0.132995
C -1.372246 3.030837 0.054162
O -0.761216 3.773584 0.988545
H -2.837173 3.595812 -0.507944
H -2.682546 2.036534 0.266724
H -0.895639 2.271517 -0.839450
H 0.022341 3.061229 -0.095032
7
Debug optimization step
C -2.033720 3.023282 0.132999
C -1.372247 3.030845 0.054157
O -0.761215 3.773583 0.988546
H -2.837173 3.595811 -0.507946
H -2.682546 2.036535 0.266725
H -0.895640 2.271519 -0.839451
H 0.022342 3.061226 -0.095031
7
Debug optimization step
C -2.033719 3.023267 0.133016
C -1.372256 3.030875 0.054141
O -0.761211 3.773579 0.988553
H -2.837171 3.595800 -0.507960
H -2.682543 2.036537 0.266733
H -0.895646 2.271529 -0.839457
H 0.022346 3.061214 -0.095026
7
Debug optimization step
C -2.033719 3.023269 0.133014
C -1.372256 3.030872 0.054144
O -0.761210 3.773578 0.988554
H -2.837170 3.595799 -0.507962
H -2.682543 2.036537 0.266733
H -0.895647 2.271530 -0.839457
H 0.022347 3.061215 -0.095027
7
Debug optimization step
C -2.033721 3.023281 0.133006
C -1.372256 3.030858 0.054160
O -0.761208 3.773576 0.988557
H -2.837169 3.595794 -0.507968
H -2.682542 2.036538 0.266737
H -0.895650 2.271535 -0.839460
H 0.022348 3.061218 -0.095032
7
Debug optimization step
C -2.033721 3.023276 0.133019
C -1.372268 3.030882 0.054158
O -0.761200 3.773568 0.988570
H -2.837165 3.595774 -0.507995
H -2.682538 2.036543 0.266750
H -0.895662 2.271553 -0.839471
H 0.022355 3.061205 -0.095031
7
Debug optimization step
C -2.033723 3.023298 0.133004
C -1.372269 3.030856 0.054188
O -0.761196 3.773564 0.988576
H -2.837163 3.595764 -0.508007
H -2.682536 2.036545 0.266756
H -0.895668 2.271562 -0.839476
H 0.022357 3.061211 -0.095041
7
Debug optimization step
C -2.033723 3.023295 0.133007
C -1.372270 3.030861 0.054185
O -0.761196 3.773564 0.988577
H -2.837163 3.595763 -0.508009
H -2.682535 2.036545 0.266757
H -0.895669 2.271563 -0.839476
H 0.022357 3.061209 -0.095040
7
Debug optimization step
C -2.033722 3.023283 0.133020
C -1.372275 3.030884 0.054171
O -0.761193 3.773561 0.988581
H -2.837162 3.595757 -0.508018
H -2.682534 2.036546 0.266762
H -0.895673 2.271569 -0.839480
H 0.022360 3.061200 -0.095036
7
Debug optimization step
C -2.033724 3.023302 0.133008
C -1.372278 3.030864 0.054198
O -0.761188 3.773556 0.988589
H -2.837160 3.595745 -0.508033
H -2.682531 2.036549 0.266770
H -0.895680 2.271580 -0.839487
H 0.022363 3.061203 -0.095045
7
Debug optimization step
C -2.033724 3.023300 0.133010
C -1.372279 3.030868 0.054196
O -0.761188 3.773556 0.988590
H -2.837159 3.595744 -0.508034
H -2.682531 2.036549 0.266770
H -0.895681 2.271581 -0.839487
H 0.022363 3.061202 -0.095044
7
Debug optimization step
C -2.536630 2.876592 0.010298
C -1.223282 2.797910 -0.091664
O -0.468872 3.824478 0.321901
H -3.011181 3.749205 0.419838
H -3.165650 2.067469 -0.310679
H -0.738631 1.918455 -0.500919
H 0.584048 3.558691 0.151224
7
Debug optimization step
C -2.522920 2.880254 0.011292
C -1.221109 2.799421 -0.091277
O -0.548961 3.842068 0.334403
H -3.011233 3.749603 0.419293
H -3.165562 2.067008 -0.310163
H -0.738615 1.918513 -0.501481
H 0.648201 3.535933 0.137933
7
Debug optimization step
C -2.252515 2.945064 0.027579
C -1.190521 2.818081 -0.086795
O -0.698521 3.846682 0.358194
H -3.010494 3.757015 0.407236
H -3.159737 2.062130 -0.298218
H -0.736501 1.920666 -0.512694
H 0.488092 3.443162 0.104697
7
Debug optimization step
C -1.991970 2.984472 0.050179
C -1.141407 2.812784 -0.100675
O -0.862659 3.923317 0.430866
H -2.985195 3.760944 0.371377
H -3.105658 2.089601 -0.265229
H -0.725271 1.926015 -0.535216
H 0.251961 3.295667 0.048697
7
Debug optimization step
C -1.981812 2.969850 0.055234
C -1.157906 2.821647 -0.097894
O -0.874926 3.949388 0.455263
H -2.965476 3.756454 0.350341
H -3.074548 2.103246 -0.251022
H -0.716142 1.927131 -0.547639
H 0.210610 3.265085 0.035718
7
Debug optimization step
C -1.951583 2.921698 0.081653
C -1.276283 2.858133 -0.071170
O -0.910656 4.032204 0.554758
H -2.870718 3.731300 0.241940
H -2.926586 2.158409 -0.180719
H -0.677448 1.942534 -0.610601
H 0.053075 3.148521 -0.015861
7
Debug optimization step
C -1.985918 2.907598 0.073254
C -1.329548 2.838017 -0.064655
O -0.892613 4.059788 0.574617
H -2.862623 3.728120 0.228341
H -2.913438 2.158672 -0.172726
H -0.678559 1.948965 -0.618119
H 0.102500 3.151639 -0.020712
7
Debug optimization step
C -2.015248 2.886829 -0.008186
C -1.318344 2.932508 -0.061514
O -0.887234 3.989132 0.705509
H -2.868602 3.759615 0.091783
H -2.901583 2.065483 -0.063765
H -0.688620 2.009503 -0.602229
H 0.119433 3.149730 -0.061598
7
Debug optimization step
C -2.012631 2.890309 -0.008049
C -1.311594 2.937055 -0.055353
O -0.888680 3.983150 0.704968
H -2.865347 3.758225 0.086674
H -2.896906 2.065791 -0.060857
H -0.688624 2.011642 -0.604268
H 0.103583 3.146628 -0.063115
7
Debug optimization step
C -2.028288 2.893016 0.008651
C -1.345350 2.952740 -0.028975
O -0.883967 3.968285 0.762378
H -2.832582 3.753019 -0.004988
H -2.825420 2.064874 -0.011184
H -0.702956 2.049227 -0.637049
H 0.058364 3.111639 -0.088833
7
Debug optimization step
C -2.028020 2.892510 0.010186
C -1.345482 2.953791 -0.031041
O -0.884029 3.968081 0.762325
H -2.832563 3.753016 -0.005143
H -2.825365 2.064819 -0.011102
H -0.702997 2.049269 -0.637097
H 0.058257 3.111314 -0.088128
7
Debug optimization step
C -2.028023 2.892974 0.009794
C -1.345359 2.953238 -0.030359
O -0.884055 3.967985 0.762306
H -2.832555 3.753014 -0.005212
H -2.825339 2.064794 -0.011065
H -0.703017 2.049295 -0.637132
H 0.058150 3.111500 -0.088332
7
Debug optimization step
C -2.023535 2.898566 0.013795
C -1.343106 2.955224 -0.028797
O -0.886101 3.960831 0.760729
H -2.831920 3.752877 -0.010557
H -2.823394 2.062878 -0.008214
H -0.704518 2.051042 -0.639340
H 0.052374 3.111382 -0.087616
7
Debug optimization step
C -2.007477 2.924229 0.034152
C -1.350326 2.957483 -0.024172
O -0.891179 3.931913 0.760940
H -2.828381 3.752185 -0.041223
H -2.810843 2.053761 0.007880
H -0.713113 2.060696 -0.652092
H 0.041119 3.112533 -0.085485
7
Debug optimization step
C -2.022062 2.923343 0.039222
C -1.360534 2.944418 -0.030111
O -0.876919 3.940026 0.781360
H -2.827990 3.752418 -0.060992
H -2.801049 2.051903 0.017520
H -0.719319 2.066844 -0.660142
H 0.047674 3.113847 -0.086856
7
Debug optimization step
C -2.019052 2.930452 0.047590
C -1.349790 2.945620 -0.028514
O -0.877073 3.930023 0.782473
H -2.828672 3.752608 -0.074265
H -2.796931 2.049131 0.023904
H -0.723563 2.070858 -0.665772
H 0.034882 3.114107 -0.085416
7
Debug optimization step
C -2.022444 2.943617 0.069225
C -1.381699 2.935090 -0.028151
O -0.865691 3.917086 0.802555
H -2.829494 3.751100 -0.117947
H -2.781183 2.042974 0.044864
H -0.736833 2.083066 -0.684954
H 0.057144 3.119867 -0.085593
7
Debug optimization step
C -2.023555 2.957398 0.089814
C -1.384524 2.937383 -0.021304
O -0.851039 3.899146 0.827603
H -2.831957 3.741729 -0.173741
H -2.765406 2.037228 0.072955
H -0.754832 2.100721 -0.709458
H 0.051115 3.119196 -0.085868
7
Debug optimization step
C -2.031948 2.987970 0.135689
C -1.383796 2.988212 0.026329
O -0.792889 3.828001 0.929216
H -2.845559 3.687965 -0.387491
H -2.710918 2.021430 0.188031
H -0.831185 2.179381 -0.797196
H 0.036096 3.099842 -0.094578
7
Debug optimization step
C -2.031448 2.990669 0.134061
C -1.371457 2.989960 0.026731
O -0.793068 3.825321 0.929520
H -2.844607 3.685029 -0.389835
H -2.710752 2.020928 0.190336
H -0.833630 2.182758 -0.797130
H 0.024763 3.098135 -0.093684
7
Debug optimization step
C -2.032061 3.021152 0.118079
C -1.378199 3.012154 0.023181
O -0.779522 3.793261 0.963163
H -2.825897 3.625081 -0.443703
H -2.695038 2.023061 0.237302
H -0.878765 2.244138 -0.805468
H 0.029282 3.073952 -0.092553
7
Debug optimization step
C -2.031816 3.019903 0.120329
C -1.370671 3.013923 0.026868
O -0.779011 3.790685 0.962659
H -2.829207 3.625138 -0.448668
H -2.693809 2.024730 0.238854
H -0.879113 2.244578 -0.808499
H 0.023428 3.073844 -0.091543
7
Debug optimization step
C -2.032971 3.017223 0.123639
C -1.376755 3.015718 0.033560
O -0.775845 3.788469 0.965841
H -2.834085 3.623912 -0.458400
H -2.690878 2.028257 0.242202
H -0.879915 2.245794 -0.814790
H 0.030250 3.073426 -0.092052
7
Debug optimization step
C -2.032812 3.017287 0.124760
C -1.370615 3.016712 0.034835
O -0.775158 3.787275 0.966644
H -2.835323 3.623003 -0.461708
H -2.690369 2.028863 0.243571
H -0.880518 2.246868 -0.816540
H 0.024597 3.072793 -0.091561
7
Debug optimization step
C -2.034065 3.016694 0.129869
C -1.381942 3.020691 0.044575
O -0.768081 3.783689 0.977223
H -2.840254 3.615347 -0.481835
H -2.685834 2.033651 0.252320
H -0.884278 2.253508 -0.828266
H 0.034256 3.069219 -0.093886
7
Debug optimization step
C -2.033912 3.016905 0.129977
C -1.379756 3.020975 0.044648
O -0.768139 3.783336 0.977134
H -2.840278 3.615093 -0.482238
H -2.685871 2.033612 0.252548
H -0.884456 2.253801 -0.828396
H 0.032213 3.069079 -0.093673
7
Debug optimization step
C -2.033266 3.017911 0.130485
C -1.370595 3.022297 0.045069
O -0.768258 3.781719 0.976974
H -2.840311 3.613715 -0.484325
H -2.685966 2.033489 0.253732
H -0.885367 2.255298 -0.829127
H 0.023563 3.068369 -0.092807
7
Debug optimization step
C -2.033390 3.019524 0.130984
C -1.375973 3.024340 0.047541
O -0.766222 3.779939 0.980552
H -2.839263 3.608908 -0.490342
H -2.685032 2.034224 0.257196
H -0.887851 2.259358 -0.832001
H 0.027531 3.066506 -0.093929
7
Debug optimization step
C -2.033224 3.020146 0.131361
C -1.371318 3.025296 0.048040
O -0.765885 3.778852 0.981041
H -2.839161 3.607456 -0.492428
H -2.684884 2.034360 0.258334
H -0.888780 2.260828 -0.832796
H 0.023053 3.065863 -0.093551
7
Debug optimization step
C -2.034098 3.022563 0.132432
C -1.380379 3.029557 0.053462
O -0.761401 3.775140 0.988316
H -2.837227 3.597561 -0.505290
H -2.682668 2.036381 0.265392
H -0.894377 2.269592 -0.838592
H 0.029950 3.062006 -0.095720
7
Debug optimization step
C -2.033926 3.022778 0.132598
C -1.376888 3.030001 0.053628
O -0.761445 3.774606 0.988219
H -2.837263 3.597122 -0.506014
H -2.682683 2.036381 0.265753
H -0.894725 2.270125 -0.838793
H 0.026731 3.061786 -0.095392
7
Debug optimization step
C -2.033710 3.023231 0.132971
C -1.372147 3.030782 0.054050
O -0.761291 3.773656 0.988425
H -2.837210 3.595994 -0.507704
H -2.682586 2.036494 0.266602
H -0.895527 2.271349 -0.839351
H 0.022272 3.061294 -0.094993
7
Debug optimization step
C -2.033712 3.023230 0.133001
C -1.372196 3.030841 0.054069
O -0.761259 3.773626 0.988476
H -2.837194 3.595916 -0.507806
H -2.682569 2.036511 0.266654
H -0.895575 2.271421 -0.839393
H 0.022305 3.061255 -0.095001
7
Debug optimization step
C -2.033717 3.023269 0.132971
C -1.372194 3.030790 0.054119
O -0.761256 3.773622 0.988482
H -2.837192 3.595908 -0.507817
H -2.682567 2.036513 0.266659
H -0.895580 2.271428 -0.839398
H 0.022306 3.061269 -0.095017
7
Debug optimization step
C -2.033716 3.023262 0.132978
C -1.372196 3.030801 0.054110
O -0.761255 3.773622 0.988483
H -2.837192 3.595907 -0.507819
H -2.682567 2.036514 0.266661
H -0.895581 2.271430 -0.839398
H 0.022307 3.061265 -0.095014
7
Debug optimization step
C -2.033714 3.023241 0.133000
C -1.372205 3.030840 0.054085
O -0.761251 3.773618 0.988489
H -2.837190 3.595898 -0.507831
H -2.682565 2.036516 0.266667
H -0.895586 2.271438 -0.839403
H 0.022312 3.061250 -0.095006
7
Debug optimization step
C -2.033714 3.023245 0.132997
C -1.372205 3.030834 0.054091
O -0.761251 3.773617 0.988490
H -2.837190 3.595896 -0.507833
H -2.682565 2.036516 0.266668
H -0.895587 2.271439 -0.839404
H 0.022312 3.061252 -0.095008
7
Debug optimization step
C -2.033717 3.023266 0.132983
C -1.372207 3.030810 0.054119
O -0.761247 3.773614 0.988495
H -2.837188 3.595888 -0.507844
H -2.682563 2.036518 0.266673
H -0.895592 2.271447 -0.839409
H 0.022314 3.061257 -0.095017
7
Debug optimization step
C -2.033716 3.023256 0.132993
C -1.372211 3.030828 0.054108
O -0.761245 3.773612 0.988498
H -2.837187 3.595883 -0.507850
H -2.682562 2.036519 0.266676
H -0.895595 2.271451 -0.839411
H 0.022317 3.061250 -0.095014
7
Debug optimization step
C -2.033720 3.023281 0.132991
C -1.372236 3.030829 0.054152
O -0.761224 3.773591 0.988532
H -2.837177 3.595832 -0.507918
H -2.682550 2.036530 0.266711
H -0.895627 2.271499 -0.839439
H 0.022335 3.061237 -0.095029
7
Debug optimization step
C -2.033718 3.023259 0.133014
C -1.372244 3.030870 0.054125
O -0.761220 3.773588 0.988538
H -2.837175 3.595823 -0.507930
H -2.682548 2.036532 0.266717
H -0.895632 2.271507 -0.839444
H 0.022339 3.061221 -0.095020
7
Debug optimization step
C -2.033718 3.023264 0.133010
C -1.372244 3.030863 0.054132
O -0.761220 3.773587 0.988539
H -2.837175 3.595822 -0.507931
H -2.682548 2.036532 0.266718
H -0.895633 2.271509 -0.839445
H 0.022339 3.061223 -0.095022
7
Debug optimization step
C -2.033721 3.023286 0.132995
C -1.372246 3.030837 0.054162
O -0.761216 3.773584 0.988545
H -2.837173 3.595812 -0.507944
H -2.682546 2.036534 0.266724
H -0.895639 2.271517 -0.839450
H 0.022341 3.061229 -0.095032
7
Debug optimization step
C -2.033720 3.023282 0.132999
C -1.372247 3.030845 0.054157
O -0.761215 3.773583 0.988546
H -2.837173 3.595811 -0.507946
H -2.682546 2.036535 0.266725
H -0.895640 2.271519 -0.839451
H 0.022342 3.061226 -0.095031
7
Debug optimization step
C -2.033719 3.023267 0.133016
C -1.372256 3.030875 0.054141
O -0.761211 3.773579 0.988553
H -2.837171 3.595800 -0.507960
H -2.682543 2.036537 0.266733
H -0.895646 2.271529 -0.839457
H 0.022346 3.061214 -0.095026
7
Debug optimization step
C -2.033719 3.023269 0.133014
C -1.372256 3.030872 0.054144
O -0.761210 3.773578 0.988554
H -2.837170 3.595799 -0.507962
H -2.682543 2.036537 0.266733
H -0.895647 2.271530 -0.839457
H 0.022347 3.061215 -0.095027
7
Debug optimization step
C -2.033721 3.023281 0.133006
C -1.372256 3.030858 0.054160
O -0.761208 3.773576 0.988557
H -2.837169 3.595794 -0.507968
H -2.682542 2.036538 0.266737
H -0.895650 2.271535 -0.839460
H 0.022348 3.061218 -0.095032
7
Debug optimization step
C -2.033721 3.023276 0.133019
C -1.372268 3.030882 0.054158
O -0.761200 3.773568 0.988570
H -2.837165 3.595774 -0.507995
H -2.682538 2.036543 0.266750
H -0.895662 2.271553 -0.839471
H 0.022355 3.061205 -0.095031
7
Debug optimization step
C -2.033723 3.023298 0.133004
C -1.372269 3.030856 0.054188
O -0.761196 3.773564 0.988576
H -2.837163 3.595764 -0.508007
H -2.682536 2.036545 0.266756
H -0.895668 2.271562 -0.839476
H 0.022357 3.061211 -0.095041
7
Debug optimization step
C -2.033723 3.023295 0.133007
C -1.372270 3.030861 0.054185
O -0.761196 3.773564 0.988577
H -2.837163 3.595763 -0.508009
H -2.682535 2.036545 0.266757
H -0.895669 2.271563 -0.839476
H 0.022357 3.061209 -0.095040
7
Debug optimization step
C -2.033722 3.023283 0.133020
C -1.372275 3.030884 0.054171
O -0.761193 3.773561 0.988581
H -2.837162 3.595757 -0.508018
H -2.682534 2.036546 0.266762
H -0.895673 2.271569 -0.839480
H 0.022360 3.061200 -0.095036
7
Debug optimization step
C -2.033724 3.023302 0.133008
C -1.372278 3.030864 0.054198
O -0.761188 3.773556 0.988589
H -2.837160 3.595745 -0.508033
H -2.682531 2.036549 0.266770
H -0.895680 2.271580 -0.839487
H 0.022363 3.061203 -0.095045
7
Debug optimization step
C -2.033724 3.023300 0.133010
C -1.372279 3.030868 0.054196
O -0.761188 3.773556 0.988590
H -2.837159 3.595744 -0.508034
H -2.682531 2.036549 0.266770
H -0.895681 2.271581 -0.839487
H 0.022363 3.061202 -0.095044
7
Debug optimization step
C -2.076680 3.035964 0.314693
C -0.742173 2.904586 -0.393150
O 0.267716 3.483320 -0.101692
H -2.834193 3.381849 -0.398567
H -2.391131 2.052558 0.683730
H -0.774628 2.195506 -1.255224
H -2.009109 3.739017 1.150210
7
Debug optimization step
C -2.076666 3.035982 0.314677
C -0.742149 2.904588 -0.393150
O 0.267695 3.483300 -0.101656
H -2.834209 3.381818 -0.398568
H -2.391074 2.052579 0.683692
H -0.774688 2.195509 -1.255207
H -2.009108 3.739024 1.150212
7
Debug optimization step
C -2.076637 3.036018 0.314647
C -0.742103 2.904594 -0.393149
O 0.267660 3.483261 -0.101593
H -2.834236 3.381759 -0.398571
H -2.390964 2.052619 0.683620
H -0.774804 2.195512 -1.255173
H -2.009115 3.739038 1.150219
7
Debug optimization step
C -2.076644 3.036010 0.314655
C -0.742113 2.904593 -0.393148
O 0.267670 3.483270 -0.101610
H -2.834228 3.381773 -0.398572
H -2.390989 2.052610 0.683636
H -0.774779 2.195511 -1.255180
H -2.009117 3.739034 1.150220
7
Debug optimization step
C -2.076656 3.035995 0.314668
C -0.742133 2.904591 -0.393149
O 0.267688 3.483286 -0.101640
H -2.834214 3.381799 -0.398572
H -2.391037 2.052592 0.683669
H -0.774729 2.195510 -1.255195
H -2.009117 3.739027 1.150219
7
Debug optimization step
C -2.076653 3.035998 0.314665
C -0.742129 2.904591 -0.393149
O 0.267683 3.483283 -0.101633
H -2.834218 3.381793 -0.398572
H -2.391026 2.052596 0.683661
H -0.774740 2.195510 -1.255191
H -2.009116 3.739029 1.150218
7
Debug optimization step
C -2.076648 3.036005 0.314659
C -0.742120 2.904592 -0.393149
O 0.267674 3.483276 -0.101619
H -2.834225 3.381782 -0.398571
H -2.391005 2.052604 0.683647
H -0.774762 2.195511 -1.255185
H -2.009115 3.739032 1.150218
7
Debug optimization step
C -2.076649 3.036003 0.314660
C -0.742122 2.904592 -0.393149
O 0.267677 3.483277 -0.101622
H -2.834223 3.381784 -0.398571
H -2.391010 2.052602 0.683650
H -0.774757 2.195510 -1.255187
H -2.009115 3.739031 1.150218
7
Debug optimization step
C -2.076651 3.036000 0.314663
C -0.742126 2.904591 -0.393148
O 0.267681 3.483280 -0.101629
H -2.834220 3.381789 -0.398572
H -2.391019 2.052599 0.683656
H -0.774748 2.195510 -1.255189
H -2.009117 3.739030 1.150219
7
Debug optimization step
C -2.076651 3.036001 0.314662
C -0.742125 2.904591 -0.393149
O 0.267680 3.483280 -0.101627
H -2.834220 3.381788 -0.398572
H -2.391017 2.052599 0.683655
H -0.774750 2.195510 -1.255189
H -2.009116 3.739030 1.150219
7
Debug optimization step
C -2.076680 3.035964 0.314693
C -0.742173 2.904586 -0.393150
O 0.267716 3.483320 -0.101692
H -2.834193 3.381849 -0.398567
H -2.391131 2.052558 0.683730
H -0.774628 2.195506 -1.255224
H -2.009109 3.739017 1.150210
7
Debug optimization step
C -2.076666 3.035982 0.314677
C -0.742149 2.904588 -0.393150
O 0.267695 3.483300 -0.101656
H -2.834209 3.381818 -0.398568
H -2.391074 2.052579 0.683692
H -0.774688 2.195509 -1.255207
H -2.009108 3.739024 1.150212
7
Debug optimization step
C -2.076637 3.036018 0.314647
C -0.742103 2.904594 -0.393149
O 0.267660 3.483261 -0.101593
H -2.834236 3.381759 -0.398571
H -2.390964 2.052619 0.683620
H -0.774804 2.195512 -1.255173
H -2.009115 3.739038 1.150219
7
Debug optimization step
C -2.076644 3.036010 0.314655
C -0.742113 2.904593 -0.393148
O 0.267670 3.483270 -0.101610
H -2.834228 3.381773 -0.398572
H -2.390989 2.052610 0.683636
H -0.774779 2.195511 -1.255180
H -2.009117 3.739034 1.150220
7
Debug optimization step
C -2.076656 3.035995 0.314668
C -0.742133 2.904591 -0.393149
O 0.267688 3.483286 -0.101640
H -2.834214 3.381799 -0.398572
H -2.391037 2.052592 0.683669
H -0.774729 2.195510 -1.255195
H -2.009117 3.739027 1.150219
7
Debug optimization step
C -2.076653 3.035998 0.314665
C -0.742129 2.904591 -0.393149
O 0.267683 3.483283 -0.101633
H -2.834218 3.381793 -0.398572
H -2.391026 2.052596 0.683661
H -0.774740 2.195510 -1.255191
H -2.009116 3.739029 1.150218
7
Debug optimization step
C -2.076648 3.036005 0.314659
C -0.742120 2.904592 -0.393149
O 0.267674 3.483276 -0.101619
H -2.834225 3.381782 -0.398571
H -2.391005 2.052604 0.683647
H -0.774762 2.195511 -1.255185
H -2.009115 3.739032 1.150218
7
Debug optimization step
C -2.076649 3.036003 0.314660
C -0.742122 2.904592 -0.393149
O 0.267677 3.483277 -0.101622
H -2.834223 3.381784 -0.398571
H -2.391010 2.052602 0.683650
H -0.774757 2.195510 -1.255187
H -2.009115 3.739031 1.150218
7
Debug optimization step
C -2.076651 3.036000 0.314663
C -0.742126 2.904591 -0.393148
O 0.267681 3.483280 -0.101629
H -2.834220 3.381789 -0.398572
H -2.391019 2.052599 0.683656
H -0.774748 2.195510 -1.255189
H -2.009117 3.739030 1.150219
7
Debug optimization step
C -2.076651 3.036001 0.314662
C -0.742125 2.904591 -0.393149
O 0.267680 3.483280 -0.101627
H -2.834220 3.381788 -0.398572
H -2.391017 2.052599 0.683655
H -0.774750 2.195510 -1.255189
H -2.009116 3.739030 1.150219
7
Debug optimization step
C -2.536630 2.876592 0.010298
C -1.223282 2.797910 -0.091664
O -0.468872 3.824478 0.321901
H -3.011181 3.749205 0.419838
H -3.165650 2.067469 -0.310679
H -0.738631 1.918455 -0.500919
H 0.584048 3.558691 0.151224
7
Debug optimization step
C -2.522920 2.880254 0.011292
C -1.221109 2.799421 -0.091277
O -0.548961 3.842068 0.334403
H -3.011233 3.749603 0.419293
H -3.165562 2.067008 -0.310163
H -0.738615 1.918513 -0.501481
H 0.648201 3.535933 0.137933
7
Debug optimization step
C -2.252515 2.945064 0.027579
C -1.190521 2.818081 -0.086795
O -0.698521 3.846682 0.358194
H -3.010494 3.757015 0.407236
H -3.159737 2.062130 -0.298218
H -0.736501 1.920666 -0.512694
H 0.488092 3.443162 0.104697
7
Debug optimization step
C -1.991970 2.984472 0.050179
C -1.141407 2.812784 -0.100675
O -0.862659 3.923317 0.430866
H -2.985195 3.760944 0.371377
H -3.105658 2.089601 -0.265229
H -0.725271 1.926015 -0.535216
H 0.251961 3.295667 0.048697
7
Debug optimization step
C -1.981812 2.969850 0.055234
C -1.157906 2.821647 -0.097894
O -0.874926 3.949388 0.455263
H -2.965476 3.756454 0.350341
H -3.074548 2.103246 -0.251022
H -0.716142 1.927131 -0.547639
H 0.210610 3.265085 0.035718
7
Debug optimization step
C -1.951583 2.921698 0.081653
C -1.276283 2.858133 -0.071170
O -0.910656 4.032204 0.554758
H -2.870718 3.731300 0.241940
H -2.926586 2.158409 -0.180719
H -0.677448 1.942534 -0.610601
H 0.053075 3.148521 -0.015861
7
Debug optimization step
C -1.985918 2.907598 0.073254
C -1.329548 2.838017 -0.064655
O -0.892613 4.059788 0.574617
H -2.862623 3.728120 0.228341
H -2.913438 2.158672 -0.172726
H -0.678559 1.948965 -0.618119
H 0.102500 3.151639 -0.020712
7
Debug optimization step
C -2.015248 2.886829 -0.008186
C -1.318344 2.932508 -0.061514
O -0.887234 3.989132 0.705509
H -2.868602 3.759615 0.091783
H -2.901583 2.065483 -0.063765
H -0.688620 2.009503 -0.602229
H 0.119433 3.149730 -0.061598
7
Debug optimization step
C -2.012631 2.890309 -0.008049
C -1.311594 2.937055 -0.055353
O -0.888680 3.983150 0.704968
H -2.865347 3.758225 0.086674
H -2.896906 2.065791 -0.060857
H -0.688624 2.011642 -0.604268
H 0.103583 3.146628 -0.063115
7
Debug optimization step
C -2.028288 2.893016 0.008651
C -1.345350 2.952740 -0.028975
O -0.883967 3.968285 0.762378
H -2.832582 3.753019 -0.004988
H -2.825420 2.064874 -0.011184
H -0.702956 2.049227 -0.637049
H 0.058364 3.111639 -0.088833
7
Debug optimization step
C -2.028020 2.892510 0.010186
C -1.345482 2.953791 -0.031041
O -0.884029 3.968081 0.762325
H -2.832563 3.753016 -0.005143
H -2.825365 2.064819 -0.011102
H -0.702997 2.049269 -0.637097
H 0.058257 3.111314 -0.088128
7
Debug optimization step
C -2.028023 2.892974 0.009794
C -1.345359 2.953238 -0.030359
O -0.884055 3.967985 0.762306
H -2.832555 3.753014 -0.005212
H -2.825339 2.064794 -0.011065
H -0.703017 2.049295 -0.637132
H 0.058150 3.111500 -0.088332
7
Debug optimization step
C -2.023535 2.898566 0.013795
C -1.343106 2.955224 -0.028797
O -0.886101 3.960831 0.760729
H -2.831920 3.752877 -0.010557
H -2.823394 2.062878 -0.008214
H -0.704518 2.051042 -0.639340
H 0.052374 3.111382 -0.087616
7
Debug optimization step
C -2.007477 2.924229 0.034152
C -1.350326 2.957483 -0.024172
O -0.891179 3.931913 0.760940
H -2.828381 3.752185 -0.041223
H -2.810843 2.053761 0.007880
H -0.713113 2.060696 -0.652092
H 0.041119 3.112533 -0.085485
7
Debug optimization step
C -2.022062 2.923343 0.039222
C -1.360534 2.944418 -0.030111
O -0.876919 3.940026 0.781360
H -2.827990 3.752418 -0.060992
H -2.801049 2.051903 0.017520
H -0.719319 2.066844 -0.660142
H 0.047674 3.113847 -0.086856
7
Debug optimization step
C -2.019052 2.930452 0.047590
C -1.349790 2.945620 -0.028514
O -0.877073 3.930023 0.782473
H -2.828672 3.752608 -0.074265
H -2.796931 2.049131 0.023904
H -0.723563 2.070858 -0.665772
H 0.034882 3.114107 -0.085416
7
Debug optimization step
C -2.022444 2.943617 0.069225
C -1.381699 2.935090 -0.028151
O -0.865691 3.917086 0.802555
H -2.829494 3.751100 -0.117947
H -2.781183 2.042974 0.044864
H -0.736833 2.083066 -0.684954
H 0.057144 3.119867 -0.085593
7
Debug optimization step
C -2.023555 2.957398 0.089814
C -1.384524 2.937383 -0.021304
O -0.851039 3.899146 0.827603
H -2.831957 3.741729 -0.173741
H -2.765406 2.037228 0.072955
H -0.754832 2.100721 -0.709458
H 0.051115 3.119196 -0.085868
7
Debug optimization step
C -2.031948 2.987970 0.135689
C -1.383796 2.988212 0.026329
O -0.792889 3.828001 0.929216
H -2.845559 3.687965 -0.387491
H -2.710918 2.021430 0.188031
H -0.831185 2.179381 -0.797196
H 0.036096 3.099842 -0.094578
7
Debug optimization step
C -2.031448 2.990669 0.134061
C -1.371457 2.989960 0.026731
O -0.793068 3.825321 0.929520
H -2.844607 3.685029 -0.389835
H -2.710752 2.020928 0.190336
H -0.833630 2.182758 -0.797130
H 0.024763 3.098135 -0.093684
7
Debug optimization step
C -2.032061 3.021152 0.118079
C -1.378199 3.012154 0.023181
O -0.779522 3.793261 0.963163
H -2.825897 3.625081 -0.443703
H -2.695038 2.023061 0.237302
H -0.878765 2.244138 -0.805468
H 0.029282 3.073952 -0.092553
7
Debug optimization step
C -2.031816 3.019903 0.120329
C -1.370671 3.013923 0.026868
O -0.779011 3.790685 0.962659
H -2.829207 3.625138 -0.448668
H -2.693809 2.024730 0.238854
H -0.879113 2.244578 -0.808499
H 0.023428 3.073844 -0.091543
7
Debug optimization step
C -2.032971 3.017223 0.123639
C -1.376755 3.015718 0.033560
O -0.775845 3.788469 0.965841
H -2.834085 3.623912 -0.458400
H -2.690878 2.028257 0.242202
H -0.879915 2.245794 -0.814790
H 0.030250 3.073426 -0.092052
7
Debug optimization step
C -2.032812 3.017287 0.124760
C -1.370615 3.016712 0.034835
O -0.775158 3.787275 0.966644
H -2.835323 3.623003 -0.461708
H -2.690369 2.028863 0.243571
H -0.880518 2.246868 -0.816540
H 0.024597 3.072793 -0.091561
7
Debug optimization step
C -2.034065 3.016694 0.129869
C -1.381942 3.020691 0.044575
O -0.768081 3.783689 0.977223
H -2.840254 3.615347 -0.481835
H -2.685834 2.033651 0.252320
H -0.884278 2.253508 -0.828266
H 0.034256 3.069219 -0.093886
7
Debug optimization step
C -2.033912 3.016905 0.129977
C -1.379756 3.020975 0.044648
O -0.768139 3.783336 0.977134
H -2.840278 3.615093 -0.482238
H -2.685871 2.033612 0.252548
H -0.884456 2.253801 -0.828396
H 0.032213 3.069079 -0.093673
7
Debug optimization step
C -2.033266 3.017911 0.130485
C -1.370595 3.022297 0.045069
O -0.768258 3.781719 0.976974
H -2.840311 3.613715 -0.484325
H -2.685966 2.033489 0.253732
H -0.885367 2.255298 -0.829127
H 0.023563 3.068369 -0.092807
7
Debug optimization step
C -2.033390 3.019524 0.130984
C -1.375973 3.024340 0.047541
O -0.766222 3.779939 0.980552
H -2.839263 3.608908 -0.490342
H -2.685032 2.034224 0.257196
H -0.887851 2.259358 -0.832001
H 0.027531 3.066506 -0.093929
7
Debug optimization step
C -2.033224 3.020146 0.131361
C -1.371318 3.025296 0.048040
O -0.765885 3.778852 0.981041
H -2.839161 3.607456 -0.492428
H -2.684884 2.034360 0.258334
H -0.888780 2.260828 -0.832796
H 0.023053 3.065863 -0.093551
7
Debug optimization step
C -2.034098 3.022563 0.132432
C -1.380379 3.029557 0.053462
O -0.761401 3.775140 0.988316
H -2.837227 3.597561 -0.505290
H -2.682668 2.036381 0.265392
H -0.894377 2.269592 -0.838592
H 0.029950 3.062006 -0.095720
7
Debug optimization step
C -2.033926 3.022778 0.132598
C -1.376888 3.030001 0.053628
O -0.761445 3.774606 0.988219
H -2.837263 3.597122 -0.506014
H -2.682683 2.036381 0.265753
H -0.894725 2.270125 -0.838793
H 0.026731 3.061786 -0.095392
7
Debug optimization step
C -2.033710 3.023231 0.132971
C -1.372147 3.030782 0.054050
O -0.761291 3.773656 0.988425
H -2.837210 3.595994 -0.507704
H -2.682586 2.036494 0.266602
H -0.895527 2.271349 -0.839351
H 0.022272 3.061294 -0.094993
7
Debug optimization step
C -2.033712 3.023230 0.133001
C -1.372196 3.030841 0.054069
O -0.761259 3.773626 0.988476
H -2.837194 3.595916 -0.507806
H -2.682569 2.036511 0.266654
H -0.895575 2.271421 -0.839393
H 0.022305 3.061255 -0.095001
7
Debug optimization step
C -2.033717 3.023269 0.132971
C -1.372194 3.030790 0.054119
O -0.761256 3.773622 0.988482
H -2.837192 3.595908 -0.507817
H -2.682567 2.036513 0.266659
H -0.895580 2.271428 -0.839398
H 0.022306 3.061269 -0.095017
7
Debug optimization step
C -2.033716 3.023262 0.132978
C -1.372196 3.030801 0.054110
O -0.761255 3.773622 0.988483
H -2.837192 3.595907 -0.507819
H -2.682567 2.036514 0.266661
H -0.895581 2.271430 -0.839398
H 0.022307 3.061265 -0.095014
7
Debug optimization step
C -2.033714 3.023241 0.133000
C -1.372205 3.030840 0.054085
O -0.761251 3.773618 0.988489
H -2.837190 3.595898 -0.507831
H -2.682565 2.036516 0.266667
H -0.895586 2.271438 -0.839403
H 0.022312 3.061250 -0.095006
7
Debug optimization step
C -2.033714 3.023245 0.132997
C -1.372205 3.030834 0.054091
O -0.761251 3.773617 0.988490
H -2.837190 3.595896 -0.507833
H -2.682565 2.036516 0.266668
H -0.895587 2.271439 -0.839404
H 0.022312 3.061252 -0.095008
7
Debug optimization step
C -2.033717 3.023266 0.132983
C -1.372207 3.030810 0.054119
O -0.761247 3.773614 0.988495
H -2.837188 3.595888 -0.507844
H -2.682563 2.036518 0.266673
H -0.895592 2.271447 -0.839409
H 0.022314 3.061257 -0.095017
7
Debug optimization step
C -2.033716 3.023256 0.132993
C -1.372211 3.030828 0.054108
O -0.761245 3.773612 0.988498
H -2.837187 3.595883 -0.507850
H -2.682562 2.036519 0.266676
H -0.895595 2.271451 -0.839411
H 0.022317 3.061250 -0.095014
7
Debug optimization step
C -2.033720 3.023281 0.132991
C -1.372236 3.030829 0.054152
O -0.761224 3.773591 0.988532
H -2.837177 3.595832 -0.507918
H -2.682550 2.036530 0.266711
H -0.895627 2.271499 -0.839439
H 0.022335 3.061237 -0.095029
7
Debug optimization step
C -2.033718 3.023259 0.133014
C -1.372244 3.030870 0.054125
O -0.761220 3.773588 0.988538
H -2.837175 3.595823 -0.507930
H -2.682548 2.036532 0.266717
H -0.895632 2.271507 -0.839444
H 0.022339 3.061221 -0.095020
7
Debug optimization step
C -2.033718 3.023264 0.133010
C -1.372244 3.030863 0.054132
O -0.761220 3.773587 0.988539
H -2.837175 3.595822 -0.507931
H -2.682548 2.036532 0.266718
H -0.895633 2.271509 -0.839445
H 0.022339 3.061223 -0.095022
7
Debug optimization step
C -2.033721 3.023286 0.132995
C -1.372246 3.030837 0.054162
O -0.761216 3.773584 0.988545
H -2.837173 3.595812 -0.507944
H -2.682546 2.036534 0.266724
H -0.895639 2.271517 -0.839450
H 0.022341 3.061229 -0.095032
7
Debug optimization step
C -2.033720 3.023282 0.132999
C -1.372247 3.030845 0.054157
O -0.761215 3.773583 0.988546
H -2.837173 3.595811 -0.507946
H -2.682546 2.036535 0.266725
H -0.895640 2.271519 -0.839451
H 0.022342 3.061226 -0.095031
7
Debug optimization step
C -2.033719 3.023267 0.133016
C -1.372256 3.030875 0.054141
O -0.761211 3.773579 0.988553
H -2.837171 3.595800 -0.507960
H -2.682543 2.036537 0.266733
H -0.895646 2.271529 -0.839457
H 0.022346 3.061214 -0.095026
7
Debug optimization step
C -2.033719 3.023269 0.133014
C -1.372256 3.030872 0.054144
O -0.761210 3.773578 0.988554
H -2.837170 3.595799 -0.507962
H -2.682543 2.036537 0.266733
H -0.895647 2.271530 -0.839457
H 0.022347 3.061215 -0.095027
7
Debug optimization step
C -2.033721 3.023281 0.133006
C -1.372256 3.030858 0.054160
O -0.761208 3.773576 0.988557
H -2.837169 3.595794 -0.507968
H -2.682542 2.036538 0.266737
H -0.895650 2.271535 -0.839460
H 0.022348 3.061218 -0.095032
7
Debug optimization step
C -2.033721 3.023276 0.133019
C -1.372268 3.030882 0.054158
O -0.761200 3.773568 0.988570
H -2.837165 3.595774 -0.507995
H -2.682538 2.036543 0.266750
H -0.895662 2.271553 -0.839471
H 0.022355 3.061205 -0.095031
7
Debug optimization step
C -2.033723 3.023298 0.133004
C -1.372269 3.030856 0.054188
O -0.761196 3.773564 0.988576
H -2.837163 3.595764 -0.508007
H -2.682536 2.036545 0.266756
H -0.895668 2.271562 -0.839476
H 0.022357 3.061211 -0.095041
7
Debug optimization step
C -2.033723 3.023295 0.133007
C -1.372270 3.030861 0.054185
O -0.761196 3.773564 0.988577
H -2.837163 3.595763 -0.508009
H -2.682535 2.036545 0.266757
H -0.895669 2.271563 -0.839476
H 0.022357 3.061209 -0.095040
7
Debug optimization step
C -2.033722 3.023283 0.133020
C -1.372275 3.030884 0.054171
O -0.761193 3.773561 0.988581
H -2.837162 3.595757 -0.508018
H -2.682534 2.036546 0.266762
H -0.895673 2.271569 -0.839480
H 0.022360 3.061200 -0.095036
7
Debug optimization step
C -2.033724 3.023302 0.133008
C -1.372278 3.030864 0.054198
O -0.761188 3.773556 0.988589
H -2.837160 3.595745 -0.508033
H -2.682531 2.036549 0.266770
H -0.895680 2.271580 -0.839487
H 0.022363 3.061203 -0.095045
7
Debug optimization step
C -2.033724 3.023300 0.133010
C -1.372279 3.030868 0.054196
O -0.761188 3.773556 0.988590
H -2.837159 3.595744 -0.508034
H -2.682531 2.036549 0.266770
H -0.895681 2.271581 -0.839487
H 0.022363 3.061202 -0.095044
7
Debug optimization step
C -2.536630 2.876592 0.010298
C -1.223282 2.797910 -0.091664
O -0.468872 3.824478 0.321901
H -3.011181 3.749205 0.419838
H -3.165650 2.067469 -0.310679
H -0.738631 1.918455 -0.500919
H 0.584048 3.558691 0.151224
7
Debug optimization step
C -2.522920 2.880254 0.011292
C -1.221109 2.799421 -0.091277
O -0.548961 3.842068 0.334403
H -3.011233 3.749603 0.419293
H -3.165562 2.067008 -0.310163
H -0.738615 1.918513 -0.501481
H 0.648201 3.535933 0.137933
7
Debug optimization step
C -2.252515 2.945064 0.027579
C -1.190521 2.818081 -0.086795
O -0.698521 3.846682 0.358194
H -3.010494 3.757015 0.407236
H -3.159737 2.062130 -0.298218
H -0.736501 1.920666 -0.512694
H 0.488092 3.443162 0.104697
7
Debug optimization step
C -1.991970 2.984472 0.050179
C -1.141407 2.812784 -0.100675
O -0.862659 3.923317 0.430866
H -2.985195 3.760944 0.371377
H -3.105658 2.089601 -0.265229
H -0.725271 1.926015 -0.535216
H 0.251961 3.295667 0.048697
7
Debug optimization step
C -1.981812 2.969850 0.055234
C -1.157906 2.821647 -0.097894
O -0.874926 3.949388 0.455263
H -2.965476 3.756454 0.350341
H -3.074548 2.103246 -0.251022
H -0.716142 1.927131 -0.547639
H 0.210610 3.265085 0.035718
7
Debug optimization step
C -1.951583 2.921698 0.081653
C -1.276283 2.858133 -0.071170
O -0.910656 4.032204 0.554758
H -2.870718 3.731300 0.241940
H -2.926586 2.158409 -0.180719
H -0.677448 1.942534 -0.610601
H 0.053075 3.148521 -0.015861
7
Debug optimization step
C -1.985918 2.907598 0.073254
C -1.329548 2.838017 -0.064655
O -0.892613 4.059788 0.574617
H -2.862623 3.728120 0.228341
H -2.913438 2.158672 -0.172726
H -0.678559 1.948965 -0.618119
H 0.102500 3.151639 -0.020712
7
Debug optimization step
C -2.015248 2.886829 -0.008186
C -1.318344 2.932508 -0.061514
O -0.887234 3.989132 0.705509
H -2.868602 3.759615 0.091783
H -2.901583 2.065483 -0.063765
H -0.688620 2.009503 -0.602229
H 0.119433 3.149730 -0.061598
7
Debug optimization step
C -2.012631 2.890309 -0.008049
C -1.311594 2.937055 -0.055353
O -0.888680 3.983150 0.704968
H -2.865347 3.758225 0.086674
H -2.896906 2.065791 -0.060857
H -0.688624 2.011642 -0.604268
H 0.103583 3.146628 -0.063115
7
Debug optimization step
C -2.028288 2.893016 0.008651
C -1.345350 2.952740 -0.028975
O -0.883967 3.968285 0.762378
H -2.832582 3.753019 -0.004988
H -2.825420 2.064874 -0.011184
H -0.702956 2.049227 -0.637049
H 0.058364 3.111639 -0.088833
7
Debug optimization step
C -2.028020 2.892510 0.010186
C -1.345482 2.953791 -0.031041
O -0.884029 3.968081 0.762325
H -2.832563 3.753016 -0.005143
H -2.825365 2.064819 -0.011102
H -0.702997 2.049269 -0.637097
H 0.058257 3.111314 -0.088128
7
Debug optimization step
C -2.028023 2.892974 0.009794
C -1.345359 2.953238 -0.030359
O -0.884055 3.967985 0.762306
H -2.832555 3.753014 -0.005212
H -2.825339 2.064794 -0.011065
H -0.703017 2.049295 -0.637132
H 0.058150 3.111500 -0.088332
7
Debug optimization step
C -2.023535 2.898566 0.013795
C -1.343106 2.955224 -0.028797
O -0.886101 3.960831 0.760729
H -2.831920 3.752877 -0.010557
H -2.823394 2.062878 -0.008214
H -0.704518 2.051042 -0.639340
H 0.052374 3.111382 -0.087616
7
Debug optimization step
C -2.007477 2.924229 0.034152
C -1.350326 2.957483 -0.024172
O -0.891179 3.931913 0.760940
H -2.828381 3.752185 -0.041223
H -2.810843 2.053761 0.007880
H -0.713113 2.060696 -0.652092
H 0.041119 3.112533 -0.085485
7
Debug optimization step
C -2.022062 2.923343 0.039222
C -1.360534 2.944418 -0.030111
O -0.876919 3.940026 0.781360
H -2.827990 3.752418 -0.060992
H -2.801049 2.051903 0.017520
H -0.719319 2.066844 -0.660142
H 0.047674 3.113847 -0.086856
7
Debug optimization step
C -2.019052 2.930452 0.047590
C -1.349790 2.945620 -0.028514
O -0.877073 3.930023 0.782473
H -2.828672 3.752608 -0.074265
H -2.796931 2.049131 0.023904
H -0.723563 2.070858 -0.665772
H 0.034882 3.114107 -0.085416
7
Debug optimization step
C -2.022444 2.943617 0.069225
C -1.381699 2.935090 -0.028151
O -0.865691 3.917086 0.802555
H -2.829494 3.751100 -0.117947
H -2.781183 2.042974 0.044864
H -0.736833 2.083066 -0.684954
H 0.057144 3.119867 -0.085593
7
Debug optimization step
C -2.023555 2.957398 0.089814
C -1.384524 2.937383 -0.021304
O -0.851039 3.899146 0.827603
H -2.831957 3.741729 -0.173741
H -2.765406 2.037228 0.072955
H -0.754832 2.100721 -0.709458
H 0.051115 3.119196 -0.085868
7
Debug optimization step
C -2.031948 2.987970 0.135689
C -1.383796 2.988212 0.026329
O -0.792889 3.828001 0.929216
H -2.845559 3.687965 -0.387491
H -2.710918 2.021430 0.188031
H -0.831185 2.179381 -0.797196
H 0.036096 3.099842 -0.094578
7
Debug optimization step
C -2.031448 2.990669 0.134061
C -1.371457 2.989960 0.026731
O -0.793068 3.825321 0.929520
H -2.844607 3.685029 -0.389835
H -2.710752 2.020928 0.190336
H -0.833630 2.182758 -0.797130
H 0.024763 3.098135 -0.093684
7
Debug optimization step
C -2.032061 3.021152 0.118079
C -1.378199 3.012154 0.023181
O -0.779522 3.793261 0.963163
H -2.825897 3.625081 -0.443703
H -2.695038 2.023061 0.237302
H -0.878765 2.244138 -0.805468
H 0.029282 3.073952 -0.092553
7
Debug optimization step
C -2.031816 3.019903 0.120329
C -1.370671 3.013923 0.026868
O -0.779011 3.790685 0.962659
H -2.829207 3.625138 -0.448668
H -2.693809 2.024730 0.238854
H -0.879113 2.244578 -0.808499
H 0.023428 3.073844 -0.091543
7
Debug optimization step
C -2.032971 3.017223 0.123639
C -1.376755 3.015718 0.033560
O -0.775845 3.788469 0.965841
H -2.834085 3.623912 -0.458400
H -2.690878 2.028257 0.242202
H -0.879915 2.245794 -0.814790
H 0.030250 3.073426 -0.092052
7
Debug optimization step
C -2.032812 3.017287 0.124760
C -1.370615 3.016712 0.034835
O -0.775158 3.787275 0.966644
H -2.835323 3.623003 -0.461708
H -2.690369 2.028863 0.243571
H -0.880518 2.246868 -0.816540
H 0.024597 3.072793 -0.091561
7
Debug optimization step
C -2.034065 3.016694 0.129869
C -1.381942 3.020691 0.044575
O -0.768081 3.783689 0.977223
H -2.840254 3.615347 -0.481835
H -2.685834 2.033651 0.252320
H -0.884278 2.253508 -0.828266
H 0.034256 3.069219 -0.093886
7
Debug optimization step
C -2.033912 3.016905 0.129977
C -1.379756 3.020975 0.044648
O -0.768139 3.783336 0.977134
H -2.840278 3.615093 -0.482238
H -2.685871 2.033612 0.252548
H -0.884456 2.253801 -0.828396
H 0.032213 3.069079 -0.093673
7
Debug optimization step
C -2.033266 3.017911 0.130485
C -1.370595 3.022297 0.045069
O -0.768258 3.781719 0.976974
H -2.840311 3.613715 -0.484325
H -2.685966 2.033489 0.253732
H -0.885367 2.255298 -0.829127
H 0.023563 3.068369 -0.092807
7
Debug optimization step
C -2.033390 3.019524 0.130984
C -1.375973 3.024340 0.047541
O -0.766222 3.779939 0.980552
H -2.839263 3.608908 -0.490342
H -2.685032 2.034224 0.257196
H -0.887851 2.259358 -0.832001
H 0.027531 3.066506 -0.093929
7
Debug optimization step
C -2.033224 3.020146 0.131361
C -1.371318 3.025296 0.048040
O -0.765885 3.778852 0.981041
H -2.839161 3.607456 -0.492428
H -2.684884 2.034360 0.258334
H -0.888780 2.260828 -0.832796
H 0.023053 3.065863 -0.093551
7
Debug optimization step
C -2.034098 3.022563 0.132432
C -1.380379 3.029557 0.053462
O -0.761401 3.775140 0.988316
H -2.837227 3.597561 -0.505290
H -2.682668 2.036381 0.265392
H -0.894377 2.269592 -0.838592
H 0.029950 3.062006 -0.095720
7
Debug optimization step
C -2.033926 3.022778 0.132598
C -1.376888 3.030001 0.053628
O -0.761445 3.774606 0.988219
H -2.837263 3.597122 -0.506014
H -2.682683 2.036381 0.265753
H -0.894725 2.270125 -0.838793
H 0.026731 3.061786 -0.095392
7
Debug optimization step
C -2.033710 3.023231 0.132971
C -1.372147 3.030782 0.054050
O -0.761291 3.773656 0.988425
H -2.837210 3.595994 -0.507704
H -2.682586 2.036494 0.266602
H -0.895527 2.271349 -0.839351
H 0.022272 3.061294 -0.094993
7
Debug optimization step
C -2.033712 3.023230 0.133001
C -1.372196 3.030841 0.054069
O -0.761259 3.773626 0.988476
H -2.837194 3.595916 -0.507806
H -2.682569 2.036511 0.266654
H -0.895575 2.271421 -0.839393
H 0.022305 3.061255 -0.095001
7
Debug optimization step
C -2.033717 3.023269 0.132971
C -1.372194 3.030790 0.054119
O -0.761256 3.773622 0.988482
H -2.837192 3.595908 -0.507817
H -2.682567 2.036513 0.266659
H -0.895580 2.271428 -0.839398
H 0.022306 3.061269 -0.095017
7
Debug optimization step
C -2.033716 3.023262 0.132978
C -1.372196 3.030801 0.054110
O -0.761255 3.773622 0.988483
H -2.837192 3.595907 -0.507819
H -2.682567 2.036514 0.266661
H -0.895581 2.271430 -0.839398
H 0.022307 3.061265 -0.095014
7
Debug optimization step
C -2.033714 3.023241 0.133000
C -1.372205 3.030840 0.054085
O -0.761251 3.773618 0.988489
H -2.837190 3.595898 -0.507831
H -2.682565 2.036516 0.266667
H -0.895586 2.271438 -0.839403
H 0.022312 3.061250 -0.095006
7
Debug optimization step
C -2.033714 3.023245 0.132997
C -1.372205 3.030834 0.054091
O -0.761251 3.773617 0.988490
H -2.837190 3.595896 -0.507833
H -2.682565 2.036516 0.266668
H -0.895587 2.271439 -0.839404
H 0.022312 3.061252 -0.095008
7
Debug optimization step
C -2.033717 3.023266 0.132983
C -1.372207 3.030810 0.054119
O -0.761247 3.773614 0.988495
H -2.837188 3.595888 -0.507844
H -2.682563 2.036518 0.266673
H -0.895592 2.271447 -0.839409
H 0.022314 3.061257 -0.095017
7
Debug optimization step
C -2.033716 3.023256 0.132993
C -1.372211 3.030828 0.054108
O -0.761245 3.773612 0.988498
H -2.837187 3.595883 -0.507850
H -2.682562 2.036519 0.266676
H -0.895595 2.271451 -0.839411
H 0.022317 3.061250 -0.095014
7
Debug optimization step
C -2.033720 3.023281 0.132991
C -1.372236 3.030829 0.054152
O -0.761224 3.773591 0.988532
H -2.837177 3.595832 -0.507918
H -2.682550 2.036530 0.266711
H -0.895627 2.271499 -0.839439
H 0.022335 3.061237 -0.095029
7
Debug optimization step
C -2.033718 3.023259 0.133014
C -1.372244 3.030870 0.054125
O -0.761220 3.773588 0.988538
H -2.837175 3.595823 -0.507930
H -2.682548 2.036532 0.266717
H -0.895632 2.271507 -0.839444
H 0.022339 3.061221 -0.095020
7
Debug optimization step
C -2.033718 3.023264 0.133010
C -1.372244 3.030863 0.054132
O -0.761220 3.773587 0.988539
H -2.837175 3.595822 -0.507931
H -2.682548 2.036532 0.266718
H -0.895633 2.271509 -0.839445
H 0.022339 3.061223 -0.095022
7
Debug optimization step
C -2.033721 3.023286 0.132995
C -1.372246 3.030837 0.054162
O -0.761216 3.773584 0.988545
H -2.837173 3.595812 -0.507944
H -2.682546 2.036534 0.266724
H -0.895639 2.271517 -0.839450
H 0.022341 3.061229 -0.095032
7
Debug optimization step
C -2.033720 3.023282 0.132999
C -1.372247 3.030845 0.054157
O -0.761215 3.773583 0.988546
H -2.837173 3.595811 -0.507946
H -2.682546 2.036535 0.266725
H -0.895640 2.271519 -0.839451
H 0.022342 3.061226 -0.095031
7
Debug optimization step
C -2.033719 3.023267 0.133016
C -1.372256 3.030875 0.054141
O -0.761211 3.773579 0.988553
H -2.837171 3.595800 -0.507960
H -2.682543 2.036537 0.266733
H -0.895646 2.271529 -0.839457
H 0.022346 3.061214 -0.095026
7
Debug optimization step
C -2.033719 3.023269 0.133014
C -1.372256 3.030872 0.054144
O -0.761210 3.773578 0.988554
H -2.837170 3.595799 -0.507962
H -2.682543 2.036537 0.266733
H -0.895647 2.271530 -0.839457
H 0.022347 3.061215 -0.095027
7
Debug optimization step
C -2.033721 3.023281 0.133006
C -1.372256 3.030858 0.054160
O -0.761208 3.773576 0.988557
H -2.837169 3.595794 -0.507968
H -2.682542 2.036538 0.266737
H -0.895650 2.271535 -0.839460
H 0.022348 3.061218 -0.095032
7
Debug optimization step
C -2.033721 3.023276 0.133019
C -1.372268 3.030882 0.054158
O -0.761200 3.773568 0.988570
H -2.837165 3.595774 -0.507995
H -2.682538 2.036543 0.266750
H -0.895662 2.271553 -0.839471
H 0.022355 3.061205 -0.095031
7
Debug optimization step
C -2.033723 3.023298 0.133004
C -1.372269 3.030856 0.054188
O -0.761196 3.773564 0.988576
H -2.837163 3.595764 -0.508007
H -2.682536 2.036545 0.266756
H -0.895668 2.271562 -0.839476
H 0.022357 3.061211 -0.095041
7
Debug optimization step
C -2.033723 3.023295 0.133007
C -1.372270 3.030861 0.054185
O -0.761196 3.773564 0.988577
H -2.837163 3.595763 -0.508009
H -2.682535 2.036545 0.266757
H -0.895669 2.271563 -0.839476
H 0.022357 3.061209 -0.095040
7
Debug optimization step
C -2.033722 3.023283 0.133020
C -1.372275 3.030884 0.054171
O -0.761193 3.773561 0.988581
H -2.837162 3.595757 -0.508018
H -2.682534 2.036546 0.266762
H -0.895673 2.271569 -0.839480
H 0.022360 3.061200 -0.095036
7
Debug optimization step
C -2.033724 3.023302 0.133008
C -1.372278 3.030864 0.054198
O -0.761188 3.773556 0.988589
H -2.837160 3.595745 -0.508033
H -2.682531 2.036549 0.266770
H -0.895680 2.271580 -0.839487
H 0.022363 3.061203 -0.095045
7
Debug optimization step
C -2.033724 3.023300 0.133010
C -1.372279 3.030868 0.054196
O -0.761188 3.773556 0.988590
H -2.837159 3.595744 -0.508034
H -2.682531 2.036549 0.266770
H -0.895681 2.271581 -0.839487
H 0.022363 3.061202 -0.095044
7
Debug optimization step
C -2.536630 2.876592 0.010298
C -1.223282 2.797910 -0.091664
O -0.468872 3.824478 0.321901
H -3.011181 3.749205 0.419838
H -3.165650 2.067469 -0.310679
H -0.738631 1.918455 -0.500919
H 0.584048 3.558691 0.151224
7
Debug optimization step
C -2.522920 2.880254 0.011292
C -1.221109 2.799421 -0.091277
O -0.548961 3.842068 0.334403
H -3.011233 3.749603 0.419293
H -3.165562 2.067008 -0.310163
H -0.738615 1.918513 -0.501481
H 0.648201 3.535933 0.137933
7
Debug optimization step
C -2.252515 2.945064 0.027579
C -1.190521 2.818081 -0.086795
O -0.698521 3.846682 0.358194
H -3.010494 3.757015 0.407236
H -3.159737 2.062130 -0.298218
H -0.736501 1.920666 -0.512694
H 0.488092 3.443162 0.104697
7
Debug optimization step
C -1.991970 2.984472 0.050179
C -1.141407 2.812784 -0.100675
O -0.862659 3.923317 0.430866
H -2.985195 3.760944 0.371377
H -3.105658 2.089601 -0.265229
H -0.725271 1.926015 -0.535216
H 0.251961 3.295667 0.048697
7
Debug optimization step
C -1.981812 2.969850 0.055234
C -1.157906 2.821647 -0.097894
O -0.874926 3.949388 0.455263
H -2.965476 3.756454 0.350341
H -3.074548 2.103246 -0.251022
H -0.716142 1.927131 -0.547639
H 0.210610 3.265085 0.035718
7
Debug optimization step
C -1.951583 2.921698 0.081653
C -1.276283 2.858133 -0.071170
O -0.910656 4.032204 0.554758
H -2.870718 3.731300 0.241940
H -2.926586 2.158409 -0.180719
H -0.677448 1.942534 -0.610601
H 0.053075 3.148521 -0.015861
7
Debug optimization step
C -1.985918 2.907598 0.073254
C -1.329548 2.838017 -0.064655
O -0.892613 4.059788 0.574617
H -2.862623 3.728120 0.228341
H -2.913438 2.158672 -0.172726
H -0.678559 1.948965 -0.618119
H 0.102500 3.151639 -0.020712
7
Debug optimization step
C -2.015248 2.886829 -0.008186
C -1.318344 2.932508 -0.061514
O -0.887234 3.989132 0.705509
H -2.868602 3.759615 0.091783
H -2.901583 2.065483 -0.063765
H -0.688620 2.009503 -0.602229
H 0.119433 3.149730 -0.061598
7
Debug optimization step
C -2.012631 2.890309 -0.008049
C -1.311594 2.937055 -0.055353
O -0.888680 3.983150 0.704968
H -2.865347 3.758225 0.086674
H -2.896906 2.065791 -0.060857
H -0.688624 2.011642 -0.604268
H 0.103583 3.146628 -0.063115
7
Debug optimization step
C -2.028288 2.893016 0.008651
C -1.345350 2.952740 -0.028975
O -0.883967 3.968285 0.762378
H -2.832582 3.753019 -0.004988
H -2.825420 2.064874 -0.011184
H -0.702956 2.049227 -0.637049
H 0.058364 3.111639 -0.088833
7
Debug optimization step
C -2.028020 2.892510 0.010186
C -1.345482 2.953791 -0.031041
O -0.884029 3.968081 0.762325
H -2.832563 3.753016 -0.005143
H -2.825365 2.064819 -0.011102
H -0.702997 2.049269 -0.637097
H 0.058257 3.111314 -0.088128
7
Debug optimization step
C -2.028023 2.892974 0.009794
C -1.345359 2.953238 -0.030359
O -0.884055 3.967985 0.762306
H -2.832555 3.753014 -0.005212
H -2.825339 2.064794 -0.011065
H -0.703017 2.049295 -0.637132
H 0.058150 3.111500 -0.088332
7
Debug optimization step
C -2.023535 2.898566 0.013795
C -1.343106 2.955224 -0.028797
O -0.886101 3.960831 0.760729
H -2.831920 3.752877 -0.010557
H -2.823394 2.062878 -0.008214
H -0.704518 2.051042 -0.639340
H 0.052374 3.111382 -0.087616
7
Debug optimization step
C -2.007477 2.924229 0.034152
C -1.350326 2.957483 -0.024172
O -0.891179 3.931913 0.760940
H -2.828381 3.752185 -0.041223
H -2.810843 2.053761 0.007880
H -0.713113 2.060696 -0.652092
H 0.041119 3.112533 -0.085485
7
Debug optimization step
C -2.022062 2.923343 0.039222
C -1.360534 2.944418 -0.030111
O -0.876919 3.940026 0.781360
H -2.827990 3.752418 -0.060992
H -2.801049 2.051903 0.017520
H -0.719319 2.066844 -0.660142
H 0.047674 3.113847 -0.086856
7
Debug optimization step
C -2.019052 2.930452 0.047590
C -1.349790 2.945620 -0.028514
O -0.877073 3.930023 0.782473
H -2.828672 3.752608 -0.074265
H -2.796931 2.049131 0.023904
H -0.723563 2.070858 -0.665772
H 0.034882 3.114107 -0.085416
7
Debug optimization step
C -2.022444 2.943617 0.069225
C -1.381699 2.935090 -0.028151
O -0.865691 3.917086 0.802555
H -2.829494 3.751100 -0.117947
H -2.781183 2.042974 0.044864
H -0.736833 2.083066 -0.684954
H 0.057144 3.119867 -0.085593
7
Debug optimization step
C -2.023555 2.957398 0.089814
C -1.384524 2.937383 -0.021304
O -0.851039 3.899146 0.827603
H -2.831957 3.741729 -0.173741
H -2.765406 2.037228 0.072955
H -0.754832 2.100721 -0.709458
H 0.051115 3.119196 -0.085868
7
Debug optimization step
C -2.031948 2.987970 0.135689
C -1.383796 2.988212 0.026329
O -0.792889 3.828001 0.929216
H -2.845559 3.687965 -0.387491
H -2.710918 2.021430 0.188031
H -0.831185 2.179381 -0.797196
H 0.036096 3.099842 -0.094578
7
Debug optimization step
C -2.031448 2.990669 0.134061
C -1.371457 2.989960 0.026731
O -0.793068 3.825321 0.929520
H -2.844607 3.685029 -0.389835
H -2.710752 2.020928 0.190336
H -0.833630 2.182758 -0.797130
H 0.024763 3.098135 -0.093684
7
Debug optimization step
C -2.032061 3.021152 0.118079
C -1.378199 3.012154 0.023181
O -0.779522 3.793261 0.963163
H -2.825897 3.625081 -0.443703
H -2.695038 2.023061 0.237302
H -0.878765 2.244138 -0.805468
H 0.029282 3.073952 -0.092553
7
Debug optimization step
C -2.031816 3.019903 0.120329
C -1.370671 3.013923 0.026868
O -0.779011 3.790685 0.962659
H -2.829207 3.625138 -0.448668
H -2.693809 2.024730 0.238854
H -0.879113 2.244578 -0.808499
H 0.023428 3.073844 -0.091543
7
Debug optimization step
C -2.032971 3.017223 0.123639
C -1.376755 3.015718 0.033560
O -0.775845 3.788469 0.965841
H -2.834085 3.623912 -0.458400
H -2.690878 2.028257 0.242202
H -0.879915 2.245794 -0.814790
H 0.030250 3.073426 -0.092052
7
Debug optimization step
C -2.032812 3.017287 0.124760
C -1.370615 3.016712 0.034835
O -0.775158 3.787275 0.966644
H -2.835323 3.623003 -0.461708
H -2.690369 2.028863 0.243571
H -0.880518 2.246868 -0.816540
H 0.024597 3.072793 -0.091561
7
Debug optimization step
C -2.034065 3.016694 0.129869
C -1.381942 3.020691 0.044575
O -0.768081 3.783689 0.977223
H -2.840254 3.615347 -0.481835
H -2.685834 2.033651 0.252320
H -0.884278 2.253508 -0.828266
H 0.034256 3.069219 -0.093886
7
Debug optimization step
C -2.033912 3.016905 0.129977
C -1.379756 3.020975 0.044648
O -0.768139 3.783336 0.977134
H -2.840278 3.615093 -0.482238
H -2.685871 2.033612 0.252548
H -0.884456 2.253801 -0.828396
H 0.032213 3.069079 -0.093673
7
Debug optimization step
C -2.033266 3.017911 0.130485
C -1.370595 3.022297 0.045069
O -0.768258 3.781719 0.976974
H -2.840311 3.613715 -0.484325
H -2.685966 2.033489 0.253732
H -0.885367 2.255298 -0.829127
H 0.023563 3.068369 -0.092807
7
Debug optimization step
C -2.033390 3.019524 0.130984
C -1.375973 3.024340 0.047541
O -0.766222 3.779939 0.980552
H -2.839263 3.608908 -0.490342
H -2.685032 2.034224 0.257196
H -0.887851 2.259358 -0.832001
H 0.027531 3.066506 -0.093929
7
Debug optimization step
C -2.033224 3.020146 0.131361
C -1.371318 3.025296 0.048040
O -0.765885 3.778852 0.981041
H -2.839161 3.607456 -0.492428
H -2.684884 2.034360 0.258334
H -0.888780 2.260828 -0.832796
H 0.023053 3.065863 -0.093551
7
Debug optimization step
C -2.034098 3.022563 0.132432
C -1.380379 3.029557 0.053462
O -0.761401 3.775140 0.988316
H -2.837227 3.597561 -0.505290
H -2.682668 2.036381 0.265392
H -0.894377 2.269592 -0.838592
H 0.029950 3.062006 -0.095720
7
Debug optimization step
C -2.033926 3.022778 0.132598
C -1.376888 3.030001 0.053628
O -0.761445 3.774606 0.988219
H -2.837263 3.597122 -0.506014
H -2.682683 2.036381 0.265753
H -0.894725 2.270125 -0.838793
H 0.026731 3.061786 -0.095392
7
Debug optimization step
C -2.033710 3.023231 0.132971
C -1.372147 3.030782 0.054050
O -0.761291 3.773656 0.988425
H -2.837210 3.595994 -0.507704
H -2.682586 2.036494 0.266602
H -0.895527 2.271349 -0.839351
H 0.022272 3.061294 -0.094993
7
Debug optimization step
C -2.033712 3.023230 0.133001
C -1.372196 3.030841 0.054069
O -0.761259 3.773626 0.988476
H -2.837194 3.595916 -0.507806
H -2.682569 2.036511 0.266654
H -0.895575 2.271421 -0.839393
H 0.022305 3.061255 -0.095001
7
Debug optimization step
C -2.033717 3.023269 0.132971
C -1.372194 3.030790 0.054119
O -0.761256 3.773622 0.988482
H -2.837192 3.595908 -0.507817
H -2.682567 2.036513 0.266659
H -0.895580 2.271428 -0.839398
H 0.022306 3.061269 -0.095017
7
Debug optimization step
C -2.033716 3.023262 0.132978
C -1.372196 3.030801 0.054110
O -0.761255 3.773622 0.988483
H -2.837192 3.595907 -0.507819
H -2.682567 2.036514 0.266661
H -0.895581 2.271430 -0.839398
H 0.022307 3.061265 -0.095014
7
Debug optimization step
C -2.033714 3.023241 0.133000
C -1.372205 3.030840 0.054085
O -0.761251 3.773618 0.988489
H -2.837190 3.595898 -0.507831
H -2.682565 2.036516 0.266667
H -0.895586 2.271438 -0.839403
H 0.022312 3.061250 -0.095006
7
Debug optimization step
C -2.033714 3.023245 0.132997
C -1.372205 3.030834 0.054091
O -0.761251 3.773617 0.988490
H -2.837190 3.595896 -0.507833
H -2.682565 2.036516 0.266668
H -0.895587 2.271439 -0.839404
H 0.022312 3.061252 -0.095008
7
Debug optimization step
C -2.033717 3.023266 0.132983
C -1.372207 3.030810 0.054119
O -0.761247 3.773614 0.988495
H -2.837188 3.595888 -0.507844
H -2.682563 2.036518 0.266673
H -0.895592 2.271447 -0.839409
H 0.022314 3.061257 -0.095017
7
Debug optimization step
C -2.033716 3.023256 0.132993
C -1.372211 3.030828 0.054108
O -0.761245 3.773612 0.988498
H -2.837187 3.595883 -0.507850
H -2.682562 2.036519 0.266676
H -0.895595 2.271451 -0.839411
H 0.022317 3.061250 -0.095014
7
Debug optimization step
C -2.033720 3.023281 0.132991
C -1.372236 3.030829 0.054152
O -0.761224 3.773591 0.988532
H -2.837177 3.595832 -0.507918
H -2.682550 2.036530 0.266711
H -0.895627 2.271499 -0.839439
H 0.022335 3.061237 -0.095029
7
Debug optimization step
C -2.033718 3.023259 0.133014
C -1.372244 3.030870 0.054125
O -0.761220 3.773588 0.988538
H -2.837175 3.595823 -0.507930
H -2.682548 2.036532 0.266717
H -0.895632 2.271507 -0.839444
H 0.022339 3.061221 -0.095020
7
Debug optimization step
C -2.033718 3.023264 0.133010
C -1.372244 3.030863 0.054132
O -0.761220 3.773587 0.988539
H -2.837175 3.595822 -0.507931
H -2.682548 2.036532 0.266718
H -0.895633 2.271509 -0.839445
H 0.022339 3.061223 -0.095022
7
Debug optimization step
C -2.033721 3.023286 0.132995
C -1.372246 3.030837 0.054162
O -0.761216 3.773584 0.988545
H -2.837173 3.595812 -0.507944
H -2.682546 2.036534 0.266724
H -0.895639 2.271517 -0.839450
H 0.022341 3.061229 -0.095032
7
Debug optimization step
C -2.033720 3.023282 0.132999
C -1.372247 3.030845 0.054157
O -0.761215 3.773583 0.988546
H -2.837173 3.595811 -0.507946
H -2.682546 2.036535 0.266725
H -0.895640 2.271519 -0.839451
H 0.022342 3.061226 -0.095031
7
Debug optimization step
C -2.033719 3.023267 0.133016
C -1.372256 3.030875 0.054141
O -0.761211 3.773579 0.988553
H -2.837171 3.595800 -0.507960
H -2.682543 2.036537 0.266733
H -0.895646 2.271529 -0.839457
H 0.022346 3.061214 -0.095026
7
Debug optimization step
C -2.033719 3.023269 0.133014
C -1.372256 3.030872 0.054144
O -0.761210 3.773578 0.988554
H -2.837170 3.595799 -0.507962
H -2.682543 2.036537 0.266733
H -0.895647 2.271530 -0.839457
H 0.022347 3.061215 -0.095027
7
Debug optimization step
C -2.033721 3.023281 0.133006
C -1.372256 3.030858 0.054160
O -0.761208 3.773576 0.988557
H -2.837169 3.595794 -0.507968
H -2.682542 2.036538 0.266737
H -0.895650 2.271535 -0.839460
H 0.022348 3.061218 -0.095032
7
Debug optimization step
C -2.033721 3.023276 0.133019
C -1.372268 3.030882 0.054158
O -0.761200 3.773568 0.988570
H -2.837165 3.595774 -0.507995
H -2.682538 2.036543 0.266750
H -0.895662 2.271553 -0.839471
H 0.022355 3.061205 -0.095031
7
Debug optimization step
C -2.033723 3.023298 0.133004
C -1.372269 3.030856 0.054188
O -0.761196 3.773564 0.988576
H -2.837163 3.595764 -0.508007
H -2.682536 2.036545 0.266756
H -0.895668 2.271562 -0.839476
H 0.022357 3.061211 -0.095041
7
Debug optimization step
C -2.033723 3.023295 0.133007
C -1.372270 3.030861 0.054185
O -0.761196 3.773564 0.988577
H -2.837163 3.595763 -0.508009
H -2.682535 2.036545 0.266757
H -0.895669 2.271563 -0.839476
H 0.022357 3.061209 -0.095040
7
Debug optimization step
C -2.033722 3.023283 0.133020
C -1.372275 3.030884 0.054171
O -0.761193 3.773561 0.988581
H -2.837162 3.595757 -0.508018
H -2.682534 2.036546 0.266762
H -0.895673 2.271569 -0.839480
H 0.022360 3.061200 -0.095036
7
Debug optimization step
C -2.033724 3.023302 0.133008
C -1.372278 3.030864 0.054198
O -0.761188 3.773556 0.988589
H -2.837160 3.595745 -0.508033
H -2.682531 2.036549 0.266770
H -0.895680 2.271580 -0.839487
H 0.022363 3.061203 -0.095045
7
Debug optimization step
C -2.033724 3.023300 0.133010
C -1.372279 3.030868 0.054196
O -0.761188 3.773556 0.988590
H -2.837159 3.595744 -0.508034
H -2.682531 2.036549 0.266770
H -0.895681 2.271581 -0.839487
H 0.022363 3.061202 -0.095044
7
Debug optimization step
C -2.536630 2.876592 0.010298
C -1.223282 2.797910 -0.091664
O -0.468872 3.824478 0.321901
H -3.011181 3.749205 0.419838
H -3.165650 2.067469 -0.310679
H -0.738631 1.918455 -0.500919
H 0.584048 3.558691 0.151224
7
Debug optimization step
C -2.522920 2.880254 0.011292
C -1.221109 2.799421 -0.091277
O -0.548961 3.842068 0.334403
H -3.011233 3.749603 0.419293
H -3.165562 2.067008 -0.310163
H -0.738615 1.918513 -0.501481
H 0.648201 3.535933 0.137933
7
Debug optimization step
C -2.252515 2.945064 0.027579
C -1.190521 2.818081 -0.086795
O -0.698521 3.846682 0.358194
H -3.010494 3.757015 0.407236
H -3.159737 2.062130 -0.298218
H -0.736501 1.920666 -0.512694
H 0.488092 3.443162 0.104697
7
Debug optimization step
C -1.991970 2.984472 0.050179
C -1.141407 2.812784 -0.100675
O -0.862659 3.923317 0.430866
H -2.985195 3.760944 0.371377
H -3.105658 2.089601 -0.265229
H -0.725271 1.926015 -0.535216
H 0.251961 3.295667 0.048697
7
Debug optimization step
C -1.981812 2.969850 0.055234
C -1.157906 2.821647 -0.097894
O -0.874926 3.949388 0.455263
H -2.965476 3.756454 0.350341
H -3.074548 2.103246 -0.251022
H -0.716142 1.927131 -0.547639
H 0.210610 3.265085 0.035718
7
Debug optimization step
C -1.951583 2.921698 0.081653
C -1.276283 2.858133 -0.071170
O -0.910656 4.032204 0.554758
H -2.870718 3.731300 0.241940
H -2.926586 2.158409 -0.180719
H -0.677448 1.942534 -0.610601
H 0.053075 3.148521 -0.015861
7
Debug optimization step
C -1.985918 2.907598 0.073254
C -1.329548 2.838017 -0.064655
O -0.892613 4.059788 0.574617
H -2.862623 3.728120 0.228341
H -2.913438 2.158672 -0.172726
H -0.678559 1.948965 -0.618119
H 0.102500 3.151639 -0.020712
7
Debug optimization step
C -2.015248 2.886829 -0.008186
C -1.318344 2.932508 -0.061514
O -0.887234 3.989132 0.705509
H -2.868602 3.759615 0.091783
H -2.901583 2.065483 -0.063765
H -0.688620 2.009503 -0.602229
H 0.119433 3.149730 -0.061598
7
Debug optimization step
C -2.012631 2.890309 -0.008049
C -1.311594 2.937055 -0.055353
O -0.888680 3.983150 0.704968
H -2.865347 3.758225 0.086674
H -2.896906 2.065791 -0.060857
H -0.688624 2.011642 -0.604268
H 0.103583 3.146628 -0.063115
7
Debug optimization step
C -2.028288 2.893016 0.008651
C -1.345350 2.952740 -0.028975
O -0.883967 3.968285 0.762378
H -2.832582 3.753019 -0.004988
H -2.825420 2.064874 -0.011184
H -0.702956 2.049227 -0.637049
H 0.058364 3.111639 -0.088833
7
Debug optimization step
C -2.028020 2.892510 0.010186
C -1.345482 2.953791 -0.031041
O -0.884029 3.968081 0.762325
H -2.832563 3.753016 -0.005143
H -2.825365 2.064819 -0.011102
H -0.702997 2.049269 -0.637097
H 0.058257 3.111314 -0.088128
7
Debug optimization step
C -2.028023 2.892974 0.009794
C -1.345359 2.953238 -0.030359
O -0.884055 3.967985 0.762306
H -2.832555 3.753014 -0.005212
H -2.825339 2.064794 -0.011065
H -0.703017 2.049295 -0.637132
H 0.058150 3.111500 -0.088332
7
Debug optimization step
C -2.023535 2.898566 0.013795
C -1.343106 2.955224 -0.028797
O -0.886101 3.960831 0.760729
H -2.831920 3.752877 -0.010557
H -2.823394 2.062878 -0.008214
H -0.704518 2.051042 -0.639340
H 0.052374 3.111382 -0.087616
7
Debug optimization step
C -2.007477 2.924229 0.034152
C -1.350326 2.957483 -0.024172
O -0.891179 3.931913 0.760940
H -2.828381 3.752185 -0.041223
H -2.810843 2.053761 0.007880
H -0.713113 2.060696 -0.652092
H 0.041119 3.112533 -0.085485
7
Debug optimization step
C -2.022062 2.923343 0.039222
C -1.360534 2.944418 -0.030111
O -0.876919 3.940026 0.781360
H -2.827990 3.752418 -0.060992
H -2.801049 2.051903 0.017520
H -0.719319 2.066844 -0.660142
H 0.047674 3.113847 -0.086856
7
Debug optimization step
C -2.019052 2.930452 0.047590
C -1.349790 2.945620 -0.028514
O -0.877073 3.930023 0.782473
H -2.828672 3.752608 -0.074265
H -2.796931 2.049131 0.023904
H -0.723563 2.070858 -0.665772
H 0.034882 3.114107 -0.085416
7
Debug optimization step
C -2.022444 2.943617 0.069225
C -1.381699 2.935090 -0.028151
O -0.865691 3.917086 0.802555
H -2.829494 3.751100 -0.117947
H -2.781183 2.042974 0.044864
H -0.736833 2.083066 -0.684954
H 0.057144 3.119867 -0.085593
7
Debug optimization step
C -2.023555 2.957398 0.089814
C -1.384524 2.937383 -0.021304
O -0.851039 3.899146 0.827603
H -2.831957 3.741729 -0.173741
H -2.765406 2.037228 0.072955
H -0.754832 2.100721 -0.709458
H 0.051115 3.119196 -0.085868
7
Debug optimization step
C -2.031948 2.987970 0.135689
C -1.383796 2.988212 0.026329
O -0.792889 3.828001 0.929216
H -2.845559 3.687965 -0.387491
H -2.710918 2.021430 0.188031
H -0.831185 2.179381 -0.797196
H 0.036096 3.099842 -0.094578
7
Debug optimization step
C -2.031448 2.990669 0.134061
C -1.371457 2.989960 0.026731
O -0.793068 3.825321 0.929520
H -2.844607 3.685029 -0.389835
H -2.710752 2.020928 0.190336
H -0.833630 2.182758 -0.797130
H 0.024763 3.098135 -0.093684
7
Debug optimization step
C -2.032061 3.021152 0.118079
C -1.378199 3.012154 0.023181
O -0.779522 3.793261 0.963163
H -2.825897 3.625081 -0.443703
H -2.695038 2.023061 0.237302
H -0.878765 2.244138 -0.805468
H 0.029282 3.073952 -0.092553
7
Debug optimization step
C -2.031816 3.019903 0.120329
C -1.370671 3.013923 0.026868
O -0.779011 3.790685 0.962659
H -2.829207 3.625138 -0.448668
H -2.693809 2.024730 0.238854
H -0.879113 2.244578 -0.808499
H 0.023428 3.073844 -0.091543
7
Debug optimization step
C -2.032971 3.017223 0.123639
C -1.376755 3.015718 0.033560
O -0.775845 3.788469 0.965841
H -2.834085 3.623912 -0.458400
H -2.690878 2.028257 0.242202
H -0.879915 2.245794 -0.814790
H 0.030250 3.073426 -0.092052
7
Debug optimization step
C -2.032812 3.017287 0.124760
C -1.370615 3.016712 0.034835
O -0.775158 3.787275 0.966644
H -2.835323 3.623003 -0.461708
H -2.690369 2.028863 0.243571
H -0.880518 2.246868 -0.816540
H 0.024597 3.072793 -0.091561
7
Debug optimization step
C -2.034065 3.016694 0.129869
C -1.381942 3.020691 0.044575
O -0.768081 3.783689 0.977223
H -2.840254 3.615347 -0.481835
H -2.685834 2.033651 0.252320
H -0.884278 2.253508 -0.828266
H 0.034256 3.069219 -0.093886
7
Debug optimization step
C -2.033912 3.016905 0.129977
C -1.379756 3.020975 0.044648
O -0.768139 3.783336 0.977134
H -2.840278 3.615093 -0.482238
H -2.685871 2.033612 0.252548
H -0.884456 2.253801 -0.828396
H 0.032213 3.069079 -0.093673
7
Debug optimization step
C -2.033266 3.017911 0.130485
C -1.370595 3.022297 0.045069
O -0.768258 3.781719 0.976974
H -2.840311 3.613715 -0.484325
H -2.685966 2.033489 0.253732
H -0.885367 2.255298 -0.829127
H 0.023563 3.068369 -0.092807
7
Debug optimization step
C -2.033390 3.019524 0.130984
C -1.375973 3.024340 0.047541
O -0.766222 3.779939 0.980552
H -2.839263 3.608908 -0.490342
H -2.685032 2.034224 0.257196
H -0.887851 2.259358 -0.832001
H 0.027531 3.066506 -0.093929
7
Debug optimization step
C -2.033224 3.020146 0.131361
C -1.371318 3.025296 0.048040
O -0.765885 3.778852 0.981041
H -2.839161 3.607456 -0.492428
H -2.684884 2.034360 0.258334
H -0.888780 2.260828 -0.832796
H 0.023053 3.065863 -0.093551
7
Debug optimization step
C -2.034098 3.022563 0.132432
C -1.380379 3.029557 0.053462
O -0.761401 3.775140 0.988316
H -2.837227 3.597561 -0.505290
H -2.682668 2.036381 0.265392
H -0.894377 2.269592 -0.838592
H 0.029950 3.062006 -0.095720
7
Debug optimization step
C -2.033926 3.022778 0.132598
C -1.376888 3.030001 0.053628
O -0.761445 3.774606 0.988219
H -2.837263 3.597122 -0.506014
H -2.682683 2.036381 0.265753
H -0.894725 2.270125 -0.838793
H 0.026731 3.061786 -0.095392
7
Debug optimization step
C -2.033710 3.023231 0.132971
C -1.372147 3.030782 0.054050
O -0.761291 3.773656 0.988425
H -2.837210 3.595994 -0.507704
H -2.682586 2.036494 0.266602
H -0.895527 2.271349 -0.839351
H 0.022272 3.061294 -0.094993
7
Debug optimization step
C -2.033712 3.023230 0.133001
C -1.372196 3.030841 0.054069
O -0.761259 3.773626 0.988476
H -2.837194 3.595916 -0.507806
H -2.682569 2.036511 0.266654
H -0.895575 2.271421 -0.839393
H 0.022305 3.061255 -0.095001
7
Debug optimization step
C -2.033717 3.023269 0.132971
C -1.372194 3.030790 0.054119
O -0.761256 3.773622 0.988482
H -2.837192 3.595908 -0.507817
H -2.682567 2.036513 0.266659
H -0.895580 2.271428 -0.839398
H 0.022306 3.061269 -0.095017
7
Debug optimization step
C -2.033716 3.023262 0.132978
C -1.372196 3.030801 0.054110
O -0.761255 3.773622 0.988483
H -2.837192 3.595907 -0.507819
H -2.682567 2.036514 0.266661
H -0.895581 2.271430 -0.839398
H 0.022307 3.061265 -0.095014
7
Debug optimization step
C -2.033714 3.023241 0.133000
C -1.372205 3.030840 0.054085
O -0.761251 3.773618 0.988489
H -2.837190 3.595898 -0.507831
H -2.682565 2.036516 0.266667
H -0.895586 2.271438 -0.839403
H 0.022312 3.061250 -0.095006
7
Debug optimization step
C -2.033714 3.023245 0.132997
C -1.372205 3.030834 0.054091
O -0.761251 3.773617 0.988490
H -2.837190 3.595896 -0.507833
H -2.682565 2.036516 0.266668
H -0.895587 2.271439 -0.839404
H 0.022312 3.061252 -0.095008
7
Debug optimization step
C -2.033717 3.023266 0.132983
C -1.372207 3.030810 0.054119
O -0.761247 3.773614 0.988495
H -2.837188 3.595888 -0.507844
H -2.682563 2.036518 0.266673
H -0.895592 2.271447 -0.839409
H 0.022314 3.061257 -0.095017
7
Debug optimization step
C -2.033716 3.023256 0.132993
C -1.372211 3.030828 0.054108
O -0.761245 3.773612 0.988498
H -2.837187 3.595883 -0.507850
H -2.682562 2.036519 0.266676
H -0.895595 2.271451 -0.839411
H 0.022317 3.061250 -0.095014
7
Debug optimization step
C -2.033720 3.023281 0.132991
C -1.372236 3.030829 0.054152
O -0.761224 3.773591 0.988532
H -2.837177 3.595832 -0.507918
H -2.682550 2.036530 0.266711
H -0.895627 2.271499 -0.839439
H 0.022335 3.061237 -0.095029
7
Debug optimization step
C -2.033718 3.023259 0.133014
C -1.372244 3.030870 0.054125
O -0.761220 3.773588 0.988538
H -2.837175 3.595823 -0.507930
H -2.682548 2.036532 0.266717
H -0.895632 2.271507 -0.839444
H 0.022339 3.061221 -0.095020
7
Debug optimization step
C -2.033718 3.023264 0.133010
C -1.372244 3.030863 0.054132
O -0.761220 3.773587 0.988539
H -2.837175 3.595822 -0.507931
H -2.682548 2.036532 0.266718
H -0.895633 2.271509 -0.839445
H 0.022339 3.061223 -0.095022
7
Debug optimization step
C -2.033721 3.023286 0.132995
C -1.372246 3.030837 0.054162
O -0.761216 3.773584 0.988545
H -2.837173 3.595812 -0.507944
H -2.682546 2.036534 0.266724
H -0.895639 2.271517 -0.839450
H 0.022341 3.061229 -0.095032
7
Debug optimization step
C -2.033720 3.023282 0.132999
C -1.372247 3.030845 0.054157
O -0.761215 3.773583 0.988546
H -2.837173 3.595811 -0.507946
H -2.682546 2.036535 0.266725
H -0.895640 2.271519 -0.839451
H 0.022342 3.061226 -0.095031
7
Debug optimization step
C -2.033719 3.023267 0.133016
C -1.372256 3.030875 0.054141
O -0.761211 3.773579 0.988553
H -2.837171 3.595800 -0.507960
H -2.682543 2.036537 0.266733
H -0.895646 2.271529 -0.839457
H 0.022346 3.061214 -0.095026
7
Debug optimization step
C -2.033719 3.023269 0.133014
C -1.372256 3.030872 0.054144
O -0.761210 3.773578 0.988554
H -2.837170 3.595799 -0.507962
H -2.682543 2.036537 0.266733
H -0.895647 2.271530 -0.839457
H 0.022347 3.061215 -0.095027
7
Debug optimization step
C -2.033721 3.023281 0.133006
C -1.372256 3.030858 0.054160
O -0.761208 3.773576 0.988557
H -2.837169 3.595794 -0.507968
H -2.682542 2.036538 0.266737
H -0.895650 2.271535 -0.839460
H 0.022348 3.061218 -0.095032
7
Debug optimization step
C -2.033721 3.023276 0.133019
C -1.372268 3.030882 0.054158
O -0.761200 3.773568 0.988570
H -2.837165 3.595774 -0.507995
H -2.682538 2.036543 0.266750
H -0.895662 2.271553 -0.839471
H 0.022355 3.061205 -0.095031
7
Debug optimization step
C -2.033723 3.023298 0.133004
C -1.372269 3.030856 0.054188
O -0.761196 3.773564 0.988576
H -2.837163 3.595764 -0.508007
H -2.682536 2.036545 0.266756
H -0.895668 2.271562 -0.839476
H 0.022357 3.061211 -0.095041
7
Debug optimization step
C -2.033723 3.023295 0.133007
C -1.372270 3.030861 0.054185
O -0.761196 3.773564 0.988577
H -2.837163 3.595763 -0.508009
H -2.682535 2.036545 0.266757
H -0.895669 2.271563 -0.839476
H 0.022357 3.061209 -0.095040
7
Debug optimization step
C -2.033722 3.023283 0.133020
C -1.372275 3.030884 0.054171
O -0.761193 3.773561 0.988581
H -2.837162 3.595757 -0.508018
H -2.682534 2.036546 0.266762
H -0.895673 2.271569 -0.839480
H 0.022360 3.061200 -0.095036
7
Debug optimization step
C -2.033724 3.023302 0.133008
C -1.372278 3.030864 0.054198
O -0.761188 3.773556 0.988589
H -2.837160 3.595745 -0.508033
H -2.682531 2.036549 0.266770
H -0.895680 2.271580 -0.839487
H 0.022363 3.061203 -0.095045
7
Debug optimization step
C -2.033724 3.023300 0.133010
C -1.372279 3.030868 0.054196
O -0.761188 3.773556 0.988590
H -2.837159 3.595744 -0.508034
H -2.682531 2.036549 0.266770
H -0.895681 2.271581 -0.839487
H 0.022363 3.061202 -0.095044
7
Debug optimization step
C -2.536630 2.876592 0.010298
C -1.223282 2.797910 -0.091664
O -0.468872 3.824478 0.321901
H -3.011181 3.749205 0.419838
H -3.165650 2.067469 -0.310679
H -0.738631 1.918455 -0.500919
H 0.584048 3.558691 0.151224
7
Debug optimization step
C -2.522920 2.880254 0.011292
C -1.221109 2.799421 -0.091277
O -0.548961 3.842068 0.334403
H -3.011233 3.749603 0.419293
H -3.165562 2.067008 -0.310163
H -0.738615 1.918513 -0.501481
H 0.648201 3.535933 0.137933
7
Debug optimization step
C -2.252515 2.945064 0.027579
C -1.190521 2.818081 -0.086795
O -0.698521 3.846682 0.358194
H -3.010494 3.757015 0.407236
H -3.159737 2.062130 -0.298218
H -0.736501 1.920666 -0.512694
H 0.488092 3.443162 0.104697
7
Debug optimization step
C -1.991970 2.984472 0.050179
C -1.141407 2.812784 -0.100675
O -0.862659 3.923317 0.430866
H -2.985195 3.760944 0.371377
H -3.105658 2.089601 -0.265229
H -0.725271 1.926015 -0.535216
H 0.251961 3.295667 0.048697
7
Debug optimization step
C -1.981812 2.969850 0.055234
C -1.157906 2.821647 -0.097894
O -0.874926 3.949388 0.455263
H -2.965476 3.756454 0.350341
H -3.074548 2.103246 -0.251022
H -0.716142 1.927131 -0.547639
H 0.210610 3.265085 0.035718
7
Debug optimization step
C -1.951583 2.921698 0.081653
C -1.276283 2.858133 -0.071170
O -0.910656 4.032204 0.554758
H -2.870718 3.731300 0.241940
H -2.926586 2.158409 -0.180719
H -0.677448 1.942534 -0.610601
H 0.053075 3.148521 -0.015861
7
Debug optimization step
C -1.985918 2.907598 0.073254
C -1.329548 2.838017 -0.064655
O -0.892613 4.059788 0.574617
H -2.862623 3.728120 0.228341
H -2.913438 2.158672 -0.172726
H -0.678559 1.948965 -0.618119
H 0.102500 3.151639 -0.020712
7
Debug optimization step
C -2.015248 2.886829 -0.008186
C -1.318344 2.932508 -0.061514
O -0.887234 3.989132 0.705509
H -2.868602 3.759615 0.091783
H -2.901583 2.065483 -0.063765
H -0.688620 2.009503 -0.602229
H 0.119433 3.149730 -0.061598
7
Debug optimization step
C -2.012631 2.890309 -0.008049
C -1.311594 2.937055 -0.055353
O -0.888680 3.983150 0.704968
H -2.865347 3.758225 0.086674
H -2.896906 2.065791 -0.060857
H -0.688624 2.011642 -0.604268
H 0.103583 3.146628 -0.063115
7
Debug optimization step
C -2.028288 2.893016 0.008651
C -1.345350 2.952740 -0.028975
O -0.883967 3.968285 0.762378
H -2.832582 3.753019 -0.004988
H -2.825420 2.064874 -0.011184
H -0.702956 2.049227 -0.637049
H 0.058364 3.111639 -0.088833
7
Debug optimization step
C -2.028020 2.892510 0.010186
C -1.345482 2.953791 -0.031041
O -0.884029 3.968081 0.762325
H -2.832563 3.753016 -0.005143
H -2.825365 2.064819 -0.011102
H -0.702997 2.049269 -0.637097
H 0.058257 3.111314 -0.088128
7
Debug optimization step
C -2.028023 2.892974 0.009794
C -1.345359 2.953238 -0.030359
O -0.884055 3.967985 0.762306
H -2.832555 3.753014 -0.005212
H -2.825339 2.064794 -0.011065
H -0.703017 2.049295 -0.637132
H 0.058150 3.111500 -0.088332
7
Debug optimization step
C -2.023535 2.898566 0.013795
C -1.343106 2.955224 -0.028797
O -0.886101 3.960831 0.760729
H -2.831920 3.752877 -0.010557
H -2.823394 2.062878 -0.008214
H -0.704518 2.051042 -0.639340
H 0.052374 3.111382 -0.087616
7
Debug optimization step
C -2.007477 2.924229 0.034152
C -1.350326 2.957483 -0.024172
O -0.891179 3.931913 0.760940
H -2.828381 3.752185 -0.041223
H -2.810843 2.053761 0.007880
H -0.713113 2.060696 -0.652092
H 0.041119 3.112533 -0.085485
7
Debug optimization step
C -2.022062 2.923343 0.039222
C -1.360534 2.944418 -0.030111
O -0.876919 3.940026 0.781360
H -2.827990 3.752418 -0.060992
H -2.801049 2.051903 0.017520
H -0.719319 2.066844 -0.660142
H 0.047674 3.113847 -0.086856
7
Debug optimization step
C -2.019052 2.930452 0.047590
C -1.349790 2.945620 -0.028514
O -0.877073 3.930023 0.782473
H -2.828672 3.752608 -0.074265
H -2.796931 2.049131 0.023904
H -0.723563 2.070858 -0.665772
H 0.034882 3.114107 -0.085416
7
Debug optimization step
C -2.022444 2.943617 0.069225
C -1.381699 2.935090 -0.028151
O -0.865691 3.917086 0.802555
H -2.829494 3.751100 -0.117947
H -2.781183 2.042974 0.044864
H -0.736833 2.083066 -0.684954
H 0.057144 3.119867 -0.085593
7
Debug optimization step
C -2.023555 2.957398 0.089814
C -1.384524 2.937383 -0.021304
O -0.851039 3.899146 0.827603
H -2.831957 3.741729 -0.173741
H -2.765406 2.037228 0.072955
H -0.754832 2.100721 -0.709458
H 0.051115 3.119196 -0.085868
7
Debug optimization step
C -2.031948 2.987970 0.135689
C -1.383796 2.988212 0.026329
O -0.792889 3.828001 0.929216
H -2.845559 3.687965 -0.387491
H -2.710918 2.021430 0.188031
H -0.831185 2.179381 -0.797196
H 0.036096 3.099842 -0.094578
7
Debug optimization step
C -2.031448 2.990669 0.134061
C -1.371457 2.989960 0.026731
O -0.793068 3.825321 0.929520
H -2.844607 3.685029 -0.389835
H -2.710752 2.020928 0.190336
H -0.833630 2.182758 -0.797130
H 0.024763 3.098135 -0.093684
7
Debug optimization step
C -2.032061 3.021152 0.118079
C -1.378199 3.012154 0.023181
O -0.779522 3.793261 0.963163
H -2.825897 3.625081 -0.443703
H -2.695038 2.023061 0.237302
H -0.878765 2.244138 -0.805468
H 0.029282 3.073952 -0.092553
7
Debug optimization step
C -2.031816 3.019903 0.120329
C -1.370671 3.013923 0.026868
O -0.779011 3.790685 0.962659
H -2.829207 3.625138 -0.448668
H -2.693809 2.024730 0.238854
H -0.879113 2.244578 -0.808499
H 0.023428 3.073844 -0.091543
7
Debug optimization step
C -2.032971 3.017223 0.123639
C -1.376755 3.015718 0.033560
O -0.775845 3.788469 0.965841
H -2.834085 3.623912 -0.458400
H -2.690878 2.028257 0.242202
H -0.879915 2.245794 -0.814790
H 0.030250 3.073426 -0.092052
7
Debug optimization step
C -2.032812 3.017287 0.124760
C -1.370615 3.016712 0.034835
O -0.775158 3.787275 0.966644
H -2.835323 3.623003 -0.461708
H -2.690369 2.028863 0.243571
H -0.880518 2.246868 -0.816540
H 0.024597 3.072793 -0.091561
7
Debug optimization step
C -2.034065 3.016694 0.129869
C -1.381942 3.020691 0.044575
O -0.768081 3.783689 0.977223
H -2.840254 3.615347 -0.481835
H -2.685834 2.033651 0.252320
H -0.884278 2.253508 -0.828266
H 0.034256 3.069219 -0.093886
7
Debug optimization step
C -2.033912 3.016905 0.129977
C -1.379756 3.020975 0.044648
O -0.768139 3.783336 0.977134
H -2.840278 3.615093 -0.482238
H -2.685871 2.033612 0.252548
H -0.884456 2.253801 -0.828396
H 0.032213 3.069079 -0.093673
7
Debug optimization step
C -2.033266 3.017911 0.130485
C -1.370595 3.022297 0.045069
O -0.768258 3.781719 0.976974
H -2.840311 3.613715 -0.484325
H -2.685966 2.033489 0.253732
H -0.885367 2.255298 -0.829127
H 0.023563 3.068369 -0.092807
7
Debug optimization step
C -2.033390 3.019524 0.130984
C -1.375973 3.024340 0.047541
O -0.766222 3.779939 0.980552
H -2.839263 3.608908 -0.490342
H -2.685032 2.034224 0.257196
H -0.887851 2.259358 -0.832001
H 0.027531 3.066506 -0.093929
7
Debug optimization step
C -2.033224 3.020146 0.131361
C -1.371318 3.025296 0.048040
O -0.765885 3.778852 0.981041
H -2.839161 3.607456 -0.492428
H -2.684884 2.034360 0.258334
H -0.888780 2.260828 -0.832796
H 0.023053 3.065863 -0.093551
7
Debug optimization step
C -2.034098 3.022563 0.132432
C -1.380379 3.029557 0.053462
O -0.761401 3.775140 0.988316
H -2.837227 3.597561 -0.505290
H -2.682668 2.036381 0.265392
H -0.894377 2.269592 -0.838592
H 0.029950 3.062006 -0.095720
7
Debug optimization step
C -2.033926 3.022778 0.132598
C -1.376888 3.030001 0.053628
O -0.761445 3.774606 0.988219
H -2.837263 3.597122 -0.506014
H -2.682683 2.036381 0.265753
H -0.894725 2.270125 -0.838793
H 0.026731 3.061786 -0.095392
7
Debug optimization step
C -2.033710 3.023231 0.132971
C -1.372147 3.030782 0.054050
O -0.761291 3.773656 0.988425
H -2.837210 3.595994 -0.507704
H -2.682586 2.036494 0.266602
H -0.895527 2.271349 -0.839351
H 0.022272 3.061294 -0.094993
7
Debug optimization step
C -2.033712 3.023230 0.133001
C -1.372196 3.030841 0.054069
O -0.761259 3.773626 0.988476
H -2.837194 3.595916 -0.507806
H -2.682569 2.036511 0.266654
H -0.895575 2.271421 -0.839393
H 0.022305 3.061255 -0.095001
7
Debug optimization step
C -2.033717 3.023269 0.132971
C -1.372194 3.030790 0.054119
O -0.761256 3.773622 0.988482
H -2.837192 3.595908 -0.507817
H -2.682567 2.036513 0.266659
H -0.895580 2.271428 -0.839398
H 0.022306 3.061269 -0.095017
7
Debug optimization step
C -2.033716 3.023262 0.132978
C -1.372196 3.030801 0.054110
O -0.761255 3.773622 0.988483
H -2.837192 3.595907 -0.507819
H -2.682567 2.036514 0.266661
H -0.895581 2.271430 -0.839398
H 0.022307 3.061265 -0.095014
7
Debug optimization step
C -2.033714 3.023241 0.133000
C -1.372205 3.030840 0.054085
O -0.761251 3.773618 0.988489
H -2.837190 3.595898 -0.507831
H -2.682565 2.036516 0.266667
H -0.895586 2.271438 -0.839403
H 0.022312 3.061250 -0.095006
7
Debug optimization step
C -2.033714 3.023245 0.132997
C -1.372205 3.030834 0.054091
O -0.761251 3.773617 0.988490
H -2.837190 3.595896 -0.507833
H -2.682565 2.036516 0.266668
H -0.895587 2.271439 -0.839404
H 0.022312 3.061252 -0.095008
7
Debug optimization step
C -2.033717 3.023266 0.132983
C -1.372207 3.030810 0.054119
O -0.761247 3.773614 0.988495
H -2.837188 3.595888 -0.507844
H -2.682563 2.036518 0.266673
H -0.895592 2.271447 -0.839409
H 0.022314 3.061257 -0.095017
7
Debug optimization step
C -2.033716 3.023256 0.132993
C -1.372211 3.030828 0.054108
O -0.761245 3.773612 0.988498
H -2.837187 3.595883 -0.507850
H -2.682562 2.036519 0.266676
H -0.895595 2.271451 -0.839411
H 0.022317 3.061250 -0.095014
7
Debug optimization step
C -2.033720 3.023281 0.132991
C -1.372236 3.030829 0.054152
O -0.761224 3.773591 0.988532
H -2.837177 3.595832 -0.507918
H -2.682550 2.036530 0.266711
H -0.895627 2.271499 -0.839439
H 0.022335 3.061237 -0.095029
7
Debug optimization step
C -2.033718 3.023259 0.133014
C -1.372244 3.030870 0.054125
O -0.761220 3.773588 0.988538
H -2.837175 3.595823 -0.507930
H -2.682548 2.036532 0.266717
H -0.895632 2.271507 -0.839444
H 0.022339 3.061221 -0.095020
7
Debug optimization step
C -2.033718 3.023264 0.133010
C -1.372244 3.030863 0.054132
O -0.761220 3.773587 0.988539
H -2.837175 3.595822 -0.507931
H -2.682548 2.036532 0.266718
H -0.895633 2.271509 -0.839445
H 0.022339 3.061223 -0.095022
7
Debug optimization step
C -2.033721 3.023286 0.132995
C -1.372246 3.030837 0.054162
O -0.761216 3.773584 0.988545
H -2.837173 3.595812 -0.507944
H -2.682546 2.036534 0.266724
H -0.895639 2.271517 -0.839450
H 0.022341 3.061229 -0.095032
7
Debug optimization step
C -2.033720 3.023282 0.132999
C -1.372247 3.030845 0.054157
O -0.761215 3.773583 0.988546
H -2.837173 3.595811 -0.507946
H -2.682546 2.036535 0.266725
H -0.895640 2.271519 -0.839451
H 0.022342 3.061226 -0.095031
7
Debug optimization step
C -2.033719 3.023267 0.133016
C -1.372256 3.030875 0.054141
O -0.761211 3.773579 0.988553
H -2.837171 3.595800 -0.507960
H -2.682543 2.036537 0.266733
H -0.895646 2.271529 -0.839457
H 0.022346 3.061214 -0.095026
7
Debug optimization step
C -2.033719 3.023269 0.133014
C -1.372256 3.030872 0.054144
O -0.761210 3.773578 0.988554
H -2.837170 3.595799 -0.507962
H -2.682543 2.036537 0.266733
H -0.895647 2.271530 -0.839457
H 0.022347 3.061215 -0.095027
7
Debug optimization step
C -2.033721 3.023281 0.133006
C -1.372256 3.030858 0.054160
O -0.761208 3.773576 0.988557
H -2.837169 3.595794 -0.507968
H -2.682542 2.036538 0.266737
H -0.895650 2.271535 -0.839460
H 0.022348 3.061218 -0.095032
7
Debug optimization step
C -2.033721 3.023276 0.133019
C -1.372268 3.030882 0.054158
O -0.761200 3.773568 0.988570
H -2.837165 3.595774 -0.507995
H -2.682538 2.036543 0.266750
H -0.895662 2.271553 -0.839471
H 0.022355 3.061205 -0.095031
7
Debug optimization step
C -2.033723 3.023298 0.133004
C -1.372269 3.030856 0.054188
O -0.761196 3.773564 0.988576
H -2.837163 3.595764 -0.508007
H -2.682536 2.036545 0.266756
H -0.895668 2.271562 -0.839476
H 0.022357 3.061211 -0.095041
7
Debug optimization step
C -2.033723 3.023295 0.133007
C -1.372270 3.030861 0.054185
O -0.761196 3.773564 0.988577
H -2.837163 3.595763 -0.508009
H -2.682535 2.036545 0.266757
H -0.895669 2.271563 -0.839476
H 0.022357 3.061209 -0.095040
7
Debug optimization step
C -2.033722 3.023283 0.133020
C -1.372275 3.030884 0.054171
O -0.761193 3.773561 0.988581
H -2.837162 3.595757 -0.508018
H -2.682534 2.036546 0.266762
H -0.895673 2.271569 -0.839480
H 0.022360 3.061200 -0.095036
7
Debug optimization step
C -2.033724 3.023302 0.133008
C -1.372278 3.030864 0.054198
O -0.761188 3.773556 0.988589
H -2.837160 3.595745 -0.508033
H -2.682531 2.036549 0.266770
H -0.895680 2.271580 -0.839487
H 0.022363 3.061203 -0.095045
7
Debug optimization step
C -2.033724 3.023300 0.133010
C -1.372279 3.030868 0.054196
O -0.761188 3.773556 0.988590
H -2.837159 3.595744 -0.508034
H -2.682531 2.036549 0.266770
H -0.895681 2.271581 -0.839487
H 0.022363 3.061202 -0.095044
7
Debug optimization step
C -2.536630 2.876592 0.010298
C -1.223282 2.797910 -0.091664
O -0.468872 3.824478 0.321901
H -3.011181 3.749205 0.419838
H -3.165650 2.067469 -0.310679
H -0.738631 1.918455 -0.500919
H 0.584048 3.558691 0.151224
7
Debug optimization step
C -2.522920 2.880254 0.011292
C -1.221109 2.799421 -0.091277
O -0.548961 3.842068 0.334403
H -3.011233 3.749603 0.419293
H -3.165562 2.067008 -0.310163
H -0.738615 1.918513 -0.501481
H 0.648201 3.535933 0.137933
7
Debug optimization step
C -2.252515 2.945064 0.027579
C -1.190521 2.818081 -0.086795
O -0.698521 3.846682 0.358194
H -3.010494 3.757015 0.407236
H -3.159737 2.062130 -0.298218
H -0.736501 1.920666 -0.512694
H 0.488092 3.443162 0.104697
7
Debug optimization step
C -1.991970 2.984472 0.050179
C -1.141407 2.812784 -0.100675
O -0.862659 3.923317 0.430866
H -2.985195 3.760944 0.371377
H -3.105658 2.089601 -0.265229
H -0.725271 1.926015 -0.535216
H 0.251961 3.295667 0.048697
7
Debug optimization step
C -1.981812 2.969850 0.055234
C -1.157906 2.821647 -0.097894
O -0.874926 3.949388 0.455263
H -2.965476 3.756454 0.350341
H -3.074548 2.103246 -0.251022
H -0.716142 1.927131 -0.547639
H 0.210610 3.265085 0.035718
7
Debug optimization step
C -1.951583 2.921698 0.081653
C -1.276283 2.858133 -0.071170
O -0.910656 4.032204 0.554758
H -2.870718 3.731300 0.241940
H -2.926586 2.158409 -0.180719
H -0.677448 1.942534 -0.610601
H 0.053075 3.148521 -0.015861
7
Debug optimization step
C -1.985918 2.907598 0.073254
C -1.329548 2.838017 -0.064655
O -0.892613 4.059788 0.574617
H -2.862623 3.728120 0.228341
H -2.913438 2.158672 -0.172726
H -0.678559 1.948965 -0.618119
H 0.102500 3.151639 -0.020712
7
Debug optimization step
C -2.015248 2.886829 -0.008186
C -1.318344 2.932508 -0.061514
O -0.887234 3.989132 0.705509
H -2.868602 3.759615 0.091783
H -2.901583 2.065483 -0.063765
H -0.688620 2.009503 -0.602229
H 0.119433 3.149730 -0.061598
7
Debug optimization step
C -2.012631 2.890309 -0.008049
C -1.311594 2.937055 -0.055353
O -0.888680 3.983150 0.704968
H -2.865347 3.758225 0.086674
H -2.896906 2.065791 -0.060857
H -0.688624 2.011642 -0.604268
H 0.103583 3.146628 -0.063115
7
Debug optimization step
C -2.028288 2.893016 0.008651
C -1.345350 2.952740 -0.028975
O -0.883967 3.968285 0.762378
H -2.832582 3.753019 -0.004988
H -2.825420 2.064874 -0.011184
H -0.702956 2.049227 -0.637049
H 0.058364 3.111639 -0.088833
7
Debug optimization step
C -2.028020 2.892510 0.010186
C -1.345482 2.953791 -0.031041
O -0.884029 3.968081 0.762325
H -2.832563 3.753016 -0.005143
H -2.825365 2.064819 -0.011102
H -0.702997 2.049269 -0.637097
H 0.058257 3.111314 -0.088128
7
Debug optimization step
C -2.028023 2.892974 0.009794
C -1.345359 2.953238 -0.030359
O -0.884055 3.967985 0.762306
H -2.832555 3.753014 -0.005212
H -2.825339 2.064794 -0.011065
H -0.703017 2.049295 -0.637132
H 0.058150 3.111500 -0.088332
7
Debug optimization step
C -2.023535 2.898566 0.013795
C -1.343106 2.955224 -0.028797
O -0.886101 3.960831 0.760729
H -2.831920 3.752877 -0.010557
H -2.823394 2.062878 -0.008214
H -0.704518 2.051042 -0.639340
H 0.052374 3.111382 -0.087616
7
Debug optimization step
C -2.007477 2.924229 0.034152
C -1.350326 2.957483 -0.024172
O -0.891179 3.931913 0.760940
H -2.828381 3.752185 -0.041223
H -2.810843 2.053761 0.007880
H -0.713113 2.060696 -0.652092
H 0.041119 3.112533 -0.085485
7
Debug optimization step
C -2.022062 2.923343 0.039222
C -1.360534 2.944418 -0.030111
O -0.876919 3.940026 0.781360
H -2.827990 3.752418 -0.060992
H -2.801049 2.051903 0.017520
H -0.719319 2.066844 -0.660142
H 0.047674 3.113847 -0.086856
7
Debug optimization step
C -2.019052 2.930452 0.047590
C -1.349790 2.945620 -0.028514
O -0.877073 3.930023 0.782473
H -2.828672 3.752608 -0.074265
H -2.796931 2.049131 0.023904
H -0.723563 2.070858 -0.665772
H 0.034882 3.114107 -0.085416
7
Debug optimization step
C -2.022444 2.943617 0.069225
C -1.381699 2.935090 -0.028151
O -0.865691 3.917086 0.802555
H -2.829494 3.751100 -0.117947
H -2.781183 2.042974 0.044864
H -0.736833 2.083066 -0.684954
H 0.057144 3.119867 -0.085593
7
Debug optimization step
C -2.023555 2.957398 0.089814
C -1.384524 2.937383 -0.021304
O -0.851039 3.899146 0.827603
H -2.831957 3.741729 -0.173741
H -2.765406 2.037228 0.072955
H -0.754832 2.100721 -0.709458
H 0.051115 3.119196 -0.085868
7
Debug optimization step
C -2.031948 2.987970 0.135689
C -1.383796 2.988212 0.026329
O -0.792889 3.828001 0.929216
H -2.845559 3.687965 -0.387491
H -2.710918 2.021430 0.188031
H -0.831185 2.179381 -0.797196
H 0.036096 3.099842 -0.094578
7
Debug optimization step
C -2.031448 2.990669 0.134061
C -1.371457 2.989960 0.026731
O -0.793068 3.825321 0.929520
H -2.844607 3.685029 -0.389835
H -2.710752 2.020928 0.190336
H -0.833630 2.182758 -0.797130
H 0.024763 3.098135 -0.093684
7
Debug optimization step
C -2.032061 3.021152 0.118079
C -1.378199 3.012154 0.023181
O -0.779522 3.793261 0.963163
H -2.825897 3.625081 -0.443703
H -2.695038 2.023061 0.237302
H -0.878765 2.244138 -0.805468
H 0.029282 3.073952 -0.092553
7
Debug optimization step
C -2.031816 3.019903 0.120329
C -1.370671 3.013923 0.026868
O -0.779011 3.790685 0.962659
H -2.829207 3.625138 -0.448668
H -2.693809 2.024730 0.238854
H -0.879113 2.244578 -0.808499
H 0.023428 3.073844 -0.091543
7
Debug optimization step
C -2.032971 3.017223 0.123639
C -1.376755 3.015718 0.033560
O -0.775845 3.788469 0.965841
H -2.834085 3.623912 -0.458400
H -2.690878 2.028257 0.242202
H -0.879915 2.245794 -0.814790
H 0.030250 3.073426 -0.092052
7
Debug optimization step
C -2.032812 3.017287 0.124760
C -1.370615 3.016712 0.034835
O -0.775158 3.787275 0.966644
H -2.835323 3.623003 -0.461708
H -2.690369 2.028863 0.243571
H -0.880518 2.246868 -0.816540
H 0.024597 3.072793 -0.091561
7
Debug optimization step
C -2.034065 3.016694 0.129869
C -1.381942 3.020691 0.044575
O -0.768081 3.783689 0.977223
H -2.840254 3.615347 -0.481835
H -2.685834 2.033651 0.252320
H -0.884278 2.253508 -0.828266
H 0.034256 3.069219 -0.093886
7
Debug optimization step
C -2.033912 3.016905 0.129977
C -1.379756 3.020975 0.044648
O -0.768139 3.783336 0.977134
H -2.840278 3.615093 -0.482238
H -2.685871 2.033612 0.252548
H -0.884456 2.253801 -0.828396
H 0.032213 3.069079 -0.093673
7
Debug optimization step
C -2.033266 3.017911 0.130485
C -1.370595 3.022297 0.045069
O -0.768258 3.781719 0.976974
H -2.840311 3.613715 -0.484325
H -2.685966 2.033489 0.253732
H -0.885367 2.255298 -0.829127
H 0.023563 3.068369 -0.092807
7
Debug optimization step
C -2.033390 3.019524 0.130984
C -1.375973 3.024340 0.047541
O -0.766222 3.779939 0.980552
H -2.839263 3.608908 -0.490342
H -2.685032 2.034224 0.257196
H -0.887851 2.259358 -0.832001
H 0.027531 3.066506 -0.093929
7
Debug optimization step
C -2.033224 3.020146 0.131361
C -1.371318 3.025296 0.048040
O -0.765885 3.778852 0.981041
H -2.839161 3.607456 -0.492428
H -2.684884 2.034360 0.258334
H -0.888780 2.260828 -0.832796
H 0.023053 3.065863 -0.093551
7
Debug optimization step
C -2.034098 3.022563 0.132432
C -1.380379 3.029557 0.053462
O -0.761401 3.775140 0.988316
H -2.837227 3.597561 -0.505290
H -2.682668 2.036381 0.265392
H -0.894377 2.269592 -0.838592
H 0.029950 3.062006 -0.095720
7
Debug optimization step
C -2.033926 3.022778 0.132598
C -1.376888 3.030001 0.053628
O -0.761445 3.774606 0.988219
H -2.837263 3.597122 -0.506014
H -2.682683 2.036381 0.265753
H -0.894725 2.270125 -0.838793
H 0.026731 3.061786 -0.095392
7
Debug optimization step
C -2.033710 3.023231 0.132971
C -1.372147 3.030782 0.054050
O -0.761291 3.773656 0.988425
H -2.837210 3.595994 -0.507704
H -2.682586 2.036494 0.266602
H -0.895527 2.271349 -0.839351
H 0.022272 3.061294 -0.094993
7
Debug optimization step
C -2.033712 3.023230 0.133001
C -1.372196 3.030841 0.054069
O -0.761259 3.773626 0.988476
H -2.837194 3.595916 -0.507806
H -2.682569 2.036511 0.266654
H -0.895575 2.271421 -0.839393
H 0.022305 3.061255 -0.095001
7
Debug optimization step
C -2.033717 3.023269 0.132971
C -1.372194 3.030790 0.054119
O -0.761256 3.773622 0.988482
H -2.837192 3.595908 -0.507817
H -2.682567 2.036513 0.266659
H -0.895580 2.271428 -0.839398
H 0.022306 3.061269 -0.095017
7
Debug optimization step
C -2.033716 3.023262 0.132978
C -1.372196 3.030801 0.054110
O -0.761255 3.773622 0.988483
H -2.837192 3.595907 -0.507819
H -2.682567 2.036514 0.266661
H -0.895581 2.271430 -0.839398
H 0.022307 3.061265 -0.095014
7
Debug optimization step
C -2.033714 3.023241 0.133000
C -1.372205 3.030840 0.054085
O -0.761251 3.773618 0.988489
H -2.837190 3.595898 -0.507831
H -2.682565 2.036516 0.266667
H -0.895586 2.271438 -0.839403
H 0.022312 3.061250 -0.095006
7
Debug optimization step
C -2.033714 3.023245 0.132997
C -1.372205 3.030834 0.054091
O -0.761251 3.773617 0.988490
H -2.837190 3.595896 -0.507833
H -2.682565 2.036516 0.266668
H -0.895587 2.271439 -0.839404
H 0.022312 3.061252 -0.095008
7
Debug optimization step
C -2.033717 3.023266 0.132983
C -1.372207 3.030810 0.054119
O -0.761247 3.773614 0.988495
H -2.837188 3.595888 -0.507844
H -2.682563 2.036518 0.266673
H -0.895592 2.271447 -0.839409
H 0.022314 3.061257 -0.095017
7
Debug optimization step
C -2.033716 3.023256 0.132993
C -1.372211 3.030828 0.054108
O -0.761245 3.773612 0.988498
H -2.837187 3.595883 -0.507850
H -2.682562 2.036519 0.266676
H -0.895595 2.271451 -0.839411
H 0.022317 3.061250 -0.095014
7
Debug optimization step
C -2.033720 3.023281 0.132991
C -1.372236 3.030829 0.054152
O -0.761224 3.773591 0.988532
H -2.837177 3.595832 -0.507918
H -2.682550 2.036530 0.266711
H -0.895627 2.271499 -0.839439
H 0.022335 3.061237 -0.095029
7
Debug optimization step
C -2.033718 3.023259 0.133014
C -1.372244 3.030870 0.054125
O -0.761220 3.773588 0.988538
H -2.837175 3.595823 -0.507930
H -2.682548 2.036532 0.266717
H -0.895632 2.271507 -0.839444
H 0.022339 3.061221 -0.095020
7
Debug optimization step
C -2.033718 3.023264 0.133010
C -1.372244 3.030863 0.054132
O -0.761220 3.773587 0.988539
H -2.837175 3.595822 -0.507931
H -2.682548 2.036532 0.266718
H -0.895633 2.271509 -0.839445
H 0.022339 3.061223 -0.095022
7
Debug optimization step
C -2.033721 3.023286 0.132995
C -1.372246 3.030837 0.054162
O -0.761216 3.773584 0.988545
H -2.837173 3.595812 -0.507944
H -2.682546 2.036534 0.266724
H -0.895639 2.271517 -0.839450
H 0.022341 3.061229 -0.095032
7
Debug optimization step
C -2.033720 3.023282 0.132999
C -1.372247 3.030845 0.054157
O -0.761215 3.773583 0.988546
H -2.837173 3.595811 -0.507946
H -2.682546 2.036535 0.266725
H -0.895640 2.271519 -0.839451
H 0.022342 3.061226 -0.095031
7
Debug optimization step
C -2.033719 3.023267 0.133016
C -1.372256 3.030875 0.054141
O -0.761211 3.773579 0.988553
H -2.837171 3.595800 -0.507960
H -2.682543 2.036537 0.266733
H -0.895646 2.271529 -0.839457
H 0.022346 3.061214 -0.095026
7
Debug optimization step
C -2.033719 3.023269 0.133014
C -1.372256 3.030872 0.054144
O -0.761210 3.773578 0.988554
H -2.837170 3.595799 -0.507962
H -2.682543 2.036537 0.266733
H -0.895647 2.271530 -0.839457
H 0.022347 3.061215 -0.095027
7
Debug optimization step
C -2.033721 3.023281 0.133006
C -1.372256 3.030858 0.054160
O -0.761208 3.773576 0.988557
H -2.837169 3.595794 -0.507968
H -2.682542 2.036538 0.266737
H -0.895650 2.271535 -0.839460
H 0.022348 3.061218 -0.095032
7
Debug optimization step
C -2.033721 3.023276 0.133019
C -1.372268 3.030882 0.054158
O -0.761200 3.773568 0.988570
H -2.837165 3.595774 -0.507995
H -2.682538 2.036543 0.266750
H -0.895662 2.271553 -0.839471
H 0.022355 3.061205 -0.095031
7
Debug optimization step
C -2.033723 3.023298 0.133004
C -1.372269 3.030856 0.054188
O -0.761196 3.773564 0.988576
H -2.837163 3.595764 -0.508007
H -2.682536 2.036545 0.266756
H -0.895668 2.271562 -0.839476
H 0.022357 3.061211 -0.095041
7
Debug optimization step
C -2.033723 3.023295 0.133007
C -1.372270 3.030861 0.054185
O -0.761196 3.773564 0.988577
H -2.837163 3.595763 -0.508009
H -2.682535 2.036545 0.266757
H -0.895669 2.271563 -0.839476
H 0.022357 3.061209 -0.095040
7
Debug optimization step
C -2.033722 3.023283 0.133020
C -1.372275 3.030884 0.054171
O -0.761193 3.773561 0.988581
H -2.837162 3.595757 -0.508018
H -2.682534 2.036546 0.266762
H -0.895673 2.271569 -0.839480
H 0.022360 3.061200 -0.095036
7
Debug optimization step
C -2.033724 3.023302 0.133008
C -1.372278 3.030864 0.054198
O -0.761188 3.773556 0.988589
H -2.837160 3.595745 -0.508033
H -2.682531 2.036549 0.266770
H -0.895680 2.271580 -0.839487
H 0.022363 3.061203 -0.095045
7
Debug optimization step
C -2.033724 3.023300 0.133010
C -1.372279 3.030868 0.054196
O -0.761188 3.773556 0.988590
H -2.837159 3.595744 -0.508034
H -2.682531 2.036549 0.266770
H -0.895681 2.271581 -0.839487
H 0.022363 3.061202 -0.095044
7
Debug optimization step
C -2.536630 2.876592 0.010298
C -1.223282 2.797910 -0.091664
O -0.468872 3.824478 0.321901
H -3.011181 3.749205 0.419838
H -3.165650 2.067469 -0.310679
H -0.738631 1.918455 -0.500919
H 0.584048 3.558691 0.151224
7
Debug optimization step
C -2.522920 2.880254 0.011292
C -1.221109 2.799421 -0.091277
O -0.548961 3.842068 0.334403
H -3.011233 3.749603 0.419293
H -3.165562 2.067008 -0.310163
H -0.738615 1.918513 -0.501481
H 0.648201 3.535933 0.137933
7
Debug optimization step
C -2.252515 2.945064 0.027579
C -1.190521 2.818081 -0.086795
O -0.698521 3.846682 0.358194
H -3.010494 3.757015 0.407236
H -3.159737 2.062130 -0.298218
H -0.736501 1.920666 -0.512694
H 0.488092 3.443162 0.104697
7
Debug optimization step
C -1.991970 2.984472 0.050179
C -1.141407 2.812784 -0.100675
O -0.862659 3.923317 0.430866
H -2.985195 3.760944 0.371377
H -3.105658 2.089601 -0.265229
H -0.725271 1.926015 -0.535216
H 0.251961 3.295667 0.048697
7
Debug optimization step
C -1.981812 2.969850 0.055234
C -1.157906 2.821647 -0.097894
O -0.874926 3.949388 0.455263
H -2.965476 3.756454 0.350341
H -3.074548 2.103246 -0.251022
H -0.716142 1.927131 -0.547639
H 0.210610 3.265085 0.035718
7
Debug optimization step
C -1.951583 2.921698 0.081653
C -1.276283 2.858133 -0.071170
O -0.910656 4.032204 0.554758
H -2.870718 3.731300 0.241940
H -2.926586 2.158409 -0.180719
H -0.677448 1.942534 -0.610601
H 0.053075 3.148521 -0.015861
7
Debug optimization step
C -1.985918 2.907598 0.073254
C -1.329548 2.838017 -0.064655
O -0.892613 4.059788 0.574617
H -2.862623 3.728120 0.228341
H -2.913438 2.158672 -0.172726
H -0.678559 1.948965 -0.618119
H 0.102500 3.151639 -0.020712
7
Debug optimization step
C -2.015248 2.886829 -0.008186
C -1.318344 2.932508 -0.061514
O -0.887234 3.989132 0.705509
H -2.868602 3.759615 0.091783
H -2.901583 2.065483 -0.063765
H -0.688620 2.009503 -0.602229
H 0.119433 3.149730 -0.061598
7
Debug optimization step
C -2.012631 2.890309 -0.008049
C -1.311594 2.937055 -0.055353
O -0.888680 3.983150 0.704968
H -2.865347 3.758225 0.086674
H -2.896906 2.065791 -0.060857
H -0.688624 2.011642 -0.604268
H 0.103583 3.146628 -0.063115
7
Debug optimization step
C -2.028288 2.893016 0.008651
C -1.345350 2.952740 -0.028975
O -0.883967 3.968285 0.762378
H -2.832582 3.753019 -0.004988
H -2.825420 2.064874 -0.011184
H -0.702956 2.049227 -0.637049
H 0.058364 3.111639 -0.088833
7
Debug optimization step
C -2.028020 2.892510 0.010186
C -1.345482 2.953791 -0.031041
O -0.884029 3.968081 0.762325
H -2.832563 3.753016 -0.005143
H -2.825365 2.064819 -0.011102
H -0.702997 2.049269 -0.637097
H 0.058257 3.111314 -0.088128
7
Debug optimization step
C -2.028023 2.892974 0.009794
C -1.345359 2.953238 -0.030359
O -0.884055 3.967985 0.762306
H -2.832555 3.753014 -0.005212
H -2.825339 2.064794 -0.011065
H -0.703017 2.049295 -0.637132
H 0.058150 3.111500 -0.088332
7
Debug optimization step
C -2.023535 2.898566 0.013795
C -1.343106 2.955224 -0.028797
O -0.886101 3.960831 0.760729
H -2.831920 3.752877 -0.010557
H -2.823394 2.062878 -0.008214
H -0.704518 2.051042 -0.639340
H 0.052374 3.111382 -0.087616
7
Debug optimization step
C -2.007477 2.924229 0.034152
C -1.350326 2.957483 -0.024172
O -0.891179 3.931913 0.760940
H -2.828381 3.752185 -0.041223
H -2.810843 2.053761 0.007880
H -0.713113 2.060696 -0.652092
H 0.041119 3.112533 -0.085485
7
Debug optimization step
C -2.022062 2.923343 0.039222
C -1.360534 2.944418 -0.030111
O -0.876919 3.940026 0.781360
H -2.827990 3.752418 -0.060992
H -2.801049 2.051903 0.017520
H -0.719319 2.066844 -0.660142
H 0.047674 3.113847 -0.086856
7
Debug optimization step
C -2.019052 2.930452 0.047590
C -1.349790 2.945620 -0.028514
O -0.877073 3.930023 0.782473
H -2.828672 3.752608 -0.074265
H -2.796931 2.049131 0.023904
H -0.723563 2.070858 -0.665772
H 0.034882 3.114107 -0.085416
7
Debug optimization step
C -2.022444 2.943617 0.069225
C -1.381699 2.935090 -0.028151
O -0.865691 3.917086 0.802555
H -2.829494 3.751100 -0.117947
H -2.781183 2.042974 0.044864
H -0.736833 2.083066 -0.684954
H 0.057144 3.119867 -0.085593
7
Debug optimization step
C -2.023555 2.957398 0.089814
C -1.384524 2.937383 -0.021304
O -0.851039 3.899146 0.827603
H -2.831957 3.741729 -0.173741
H -2.765406 2.037228 0.072955
H -0.754832 2.100721 -0.709458
H 0.051115 3.119196 -0.085868
7
Debug optimization step
C -2.031948 2.987970 0.135689
C -1.383796 2.988212 0.026329
O -0.792889 3.828001 0.929216
H -2.845559 3.687965 -0.387491
H -2.710918 2.021430 0.188031
H -0.831185 2.179381 -0.797196
H 0.036096 3.099842 -0.094578
7
Debug optimization step
C -2.031448 2.990669 0.134061
C -1.371457 2.989960 0.026731
O -0.793068 3.825321 0.929520
H -2.844607 3.685029 -0.389835
H -2.710752 2.020928 0.190336
H -0.833630 2.182758 -0.797130
H 0.024763 3.098135 -0.093684
7
Debug optimization step
C -2.032061 3.021152 0.118079
C -1.378199 3.012154 0.023181
O -0.779522 3.793261 0.963163
H -2.825897 3.625081 -0.443703
H -2.695038 2.023061 0.237302
H -0.878765 2.244138 -0.805468
H 0.029282 3.073952 -0.092553
7
Debug optimization step
C -2.031816 3.019903 0.120329
C -1.370671 3.013923 0.026868
O -0.779011 3.790685 0.962659
H -2.829207 3.625138 -0.448668
H -2.693809 2.024730 0.238854
H -0.879113 2.244578 -0.808499
H 0.023428 3.073844 -0.091543
7
Debug optimization step
C -2.032971 3.017223 0.123639
C -1.376755 3.015718 0.033560
O -0.775845 3.788469 0.965841
H -2.834085 3.623912 -0.458400
H -2.690878 2.028257 0.242202
H -0.879915 2.245794 -0.814790
H 0.030250 3.073426 -0.092052
7
Debug optimization step
C -2.032812 3.017287 0.124760
C -1.370615 3.016712 0.034835
O -0.775158 3.787275 0.966644
H -2.835323 3.623003 -0.461708
H -2.690369 2.028863 0.243571
H -0.880518 2.246868 -0.816540
H 0.024597 3.072793 -0.091561
7
Debug optimization step
C -2.034065 3.016694 0.129869
C -1.381942 3.020691 0.044575
O -0.768081 3.783689 0.977223
H -2.840254 3.615347 -0.481835
H -2.685834 2.033651 0.252320
H -0.884278 2.253508 -0.828266
H 0.034256 3.069219 -0.093886
7
Debug optimization step
C -2.033912 3.016905 0.129977
C -1.379756 3.020975 0.044648
O -0.768139 3.783336 0.977134
H -2.840278 3.615093 -0.482238
H -2.685871 2.033612 0.252548
H -0.884456 2.253801 -0.828396
H 0.032213 3.069079 -0.093673
7
Debug optimization step
C -2.033266 3.017911 0.130485
C -1.370595 3.022297 0.045069
O -0.768258 3.781719 0.976974
H -2.840311 3.613715 -0.484325
H -2.685966 2.033489 0.253732
H -0.885367 2.255298 -0.829127
H 0.023563 3.068369 -0.092807
7
Debug optimization step
C -2.033390 3.019524 0.130984
C -1.375973 3.024340 0.047541
O -0.766222 3.779939 0.980552
H -2.839263 3.608908 -0.490342
H -2.685032 2.034224 0.257196
H -0.887851 2.259358 -0.832001
H 0.027531 3.066506 -0.093929
7
Debug optimization step
C -2.033224 3.020146 0.131361
C -1.371318 3.025296 0.048040
O -0.765885 3.778852 0.981041
H -2.839161 3.607456 -0.492428
H -2.684884 2.034360 0.258334
H -0.888780 2.260828 -0.832796
H 0.023053 3.065863 -0.093551
7
Debug optimization step
C -2.034098 3.022563 0.132432
C -1.380379 3.029557 0.053462
O -0.761401 3.775140 0.988316
H -2.837227 3.597561 -0.505290
H -2.682668 2.036381 0.265392
H -0.894377 2.269592 -0.838592
H 0.029950 3.062006 -0.095720
7
Debug optimization step
C -2.033926 3.022778 0.132598
C -1.376888 3.030001 0.053628
O -0.761445 3.774606 0.988219
H -2.837263 3.597122 -0.506014
H -2.682683 2.036381 0.265753
H -0.894725 2.270125 -0.838793
H 0.026731 3.061786 -0.095392
7
Debug optimization step
C -2.033710 3.023231 0.132971
C -1.372147 3.030782 0.054050
O -0.761291 3.773656 0.988425
H -2.837210 3.595994 -0.507704
H -2.682586 2.036494 0.266602
H -0.895527 2.271349 -0.839351
H 0.022272 3.061294 -0.094993
7
Debug optimization step
C -2.033712 3.023230 0.133001
C -1.372196 3.030841 0.054069
O -0.761259 3.773626 0.988476
H -2.837194 3.595916 -0.507806
H -2.682569 2.036511 0.266654
H -0.895575 2.271421 -0.839393
H 0.022305 3.061255 -0.095001
7
Debug optimization step
C -2.033717 3.023269 0.132971
C -1.372194 3.030790 0.054119
O -0.761256 3.773622 0.988482
H -2.837192 3.595908 -0.507817
H -2.682567 2.036513 0.266659
H -0.895580 2.271428 -0.839398
H 0.022306 3.061269 -0.095017
7
Debug optimization step
C -2.033716 3.023262 0.132978
C -1.372196 3.030801 0.054110
O -0.761255 3.773622 0.988483
H -2.837192 3.595907 -0.507819
H -2.682567 2.036514 0.266661
H -0.895581 2.271430 -0.839398
H 0.022307 3.061265 -0.095014
7
Debug optimization step
C -2.033714 3.023241 0.133000
C -1.372205 3.030840 0.054085
O -0.761251 3.773618 0.988489
H -2.837190 3.595898 -0.507831
H -2.682565 2.036516 0.266667
H -0.895586 2.271438 -0.839403
H 0.022312 3.061250 -0.095006
7
Debug optimization step
C -2.033714 3.023245 0.132997
C -1.372205 3.030834 0.054091
O -0.761251 3.773617 0.988490
H -2.837190 3.595896 -0.507833
H -2.682565 2.036516 0.266668
H -0.895587 2.271439 -0.839404
H 0.022312 3.061252 -0.095008
7
Debug optimization step
C -2.033717 3.023266 0.132983
C -1.372207 3.030810 0.054119
O -0.761247 3.773614 0.988495
H -2.837188 3.595888 -0.507844
H -2.682563 2.036518 0.266673
H -0.895592 2.271447 -0.839409
H 0.022314 3.061257 -0.095017
7
Debug optimization step
C -2.033716 3.023256 0.132993
C -1.372211 3.030828 0.054108
O -0.761245 3.773612 0.988498
H -2.837187 3.595883 -0.507850
H -2.682562 2.036519 0.266676
H -0.895595 2.271451 -0.839411
H 0.022317 3.061250 -0.095014
7
Debug optimization step
C -2.033720 3.023281 0.132991
C -1.372236 3.030829 0.054152
O -0.761224 3.773591 0.988532
H -2.837177 3.595832 -0.507918
H -2.682550 2.036530 0.266711
H -0.895627 2.271499 -0.839439
H 0.022335 3.061237 -0.095029
7
Debug optimization step
C -2.033718 3.023259 0.133014
C -1.372244 3.030870 0.054125
O -0.761220 3.773588 0.988538
H -2.837175 3.595823 -0.507930
H -2.682548 2.036532 0.266717
H -0.895632 2.271507 -0.839444
H 0.022339 3.061221 -0.095020
7
Debug optimization step
C -2.033718 3.023264 0.133010
C -1.372244 3.030863 0.054132
O -0.761220 3.773587 0.988539
H -2.837175 3.595822 -0.507931
H -2.682548 2.036532 0.266718
H -0.895633 2.271509 -0.839445
H 0.022339 3.061223 -0.095022
7
Debug optimization step
C -2.033721 3.023286 0.132995
C -1.372246 3.030837 0.054162
O -0.761216 3.773584 0.988545
H -2.837173 3.595812 -0.507944
H -2.682546 2.036534 0.266724
H -0.895639 2.271517 -0.839450
H 0.022341 3.061229 -0.095032
7
Debug optimization step
C -2.033720 3.023282 0.132999
C -1.372247 3.030845 0.054157
O -0.761215 3.773583 0.988546
H -2.837173 3.595811 -0.507946
H -2.682546 2.036535 0.266725
H -0.895640 2.271519 -0.839451
H 0.022342 3.061226 -0.095031
7
Debug optimization step
C -2.033719 3.023267 0.133016
C -1.372256 3.030875 0.054141
O -0.761211 3.773579 0.988553
H -2.837171 3.595800 -0.507960
H -2.682543 2.036537 0.266733
H -0.895646 2.271529 -0.839457
H 0.022346 3.061214 -0.095026
7
Debug optimization step
C -2.033719 3.023269 0.133014
C -1.372256 3.030872 0.054144
O -0.761210 3.773578 0.988554
H -2.837170 3.595799 -0.507962
H -2.682543 2.036537 0.266733
H -0.895647 2.271530 -0.839457
H 0.022347 3.061215 -0.095027
7
Debug optimization step
C -2.033721 3.023281 0.133006
C -1.372256 3.030858 0.054160
O -0.761208 3.773576 0.988557
H -2.837169 3.595794 -0.507968
H -2.682542 2.036538 0.266737
H -0.895650 2.271535 -0.839460
H 0.022348 3.061218 -0.095032
7
Debug optimization step
C -2.033721 3.023276 0.133019
C -1.372268 3.030882 0.054158
O -0.761200 3.773568 0.988570
H -2.837165 3.595774 -0.507995
H -2.682538 2.036543 0.266750
H -0.895662 2.271553 -0.839471
H 0.022355 3.061205 -0.095031
7
Debug optimization step
C -2.033723 3.023298 0.133004
C -1.372269 3.030856 0.054188
O -0.761196 3.773564 0.988576
H -2.837163 3.595764 -0.508007
H -2.682536 2.036545 0.266756
H -0.895668 2.271562 -0.839476
H 0.022357 3.061211 -0.095041
7
Debug optimization step
C -2.033723 3.023295 0.133007
C -1.372270 3.030861 0.054185
O -0.761196 3.773564 0.988577
H -2.837163 3.595763 -0.508009
H -2.682535 2.036545 0.266757
H -0.895669 2.271563 -0.839476
H 0.022357 3.061209 -0.095040
7
Debug optimization step
C -2.033722 3.023283 0.133020
C -1.372275 3.030884 0.054171
O -0.761193 3.773561 0.988581
H -2.837162 3.595757 -0.508018
H -2.682534 2.036546 0.266762
H -0.895673 2.271569 -0.839480
H 0.022360 3.061200 -0.095036
7
Debug optimization step
C -2.033724 3.023302 0.133008
C -1.372278 3.030864 0.054198
O -0.761188 3.773556 0.988589
H -2.837160 3.595745 -0.508033
H -2.682531 2.036549 0.266770
H -0.895680 2.271580 -0.839487
H 0.022363 3.061203 -0.095045
7
Debug optimization step
C -2.033724 3.023300 0.133010
C -1.372279 3.030868 0.054196
O -0.761188 3.773556 0.988590
H -2.837159 3.595744 -0.508034
H -2.682531 2.036549 0.266770
H -0.895681 2.271581 -0.839487
H 0.022363 3.061202 -0.095044
7
Debug optimization step
C -2.536630 2.876592 0.010298
C -1.223282 2.797910 -0.091664
O -0.468872 3.824478 0.321901
H -3.011181 3.749205 0.419838
H -3.165650 2.067469 -0.310679
H -0.738631 1.918455 -0.500919
H 0.584048 3.558691 0.151224
7
Debug optimization step
C -2.522920 2.880254 0.011292
C -1.221109 2.799421 -0.091277
O -0.548961 3.842068 0.334403
H -3.011233 3.749603 0.419293
H -3.165562 2.067008 -0.310163
H -0.738615 1.918513 -0.501481
H 0.648201 3.535933 0.137933
7
Debug optimization step
C -2.252515 2.945064 0.027579
C -1.190521 2.818081 -0.086795
O -0.698521 3.846682 0.358194
H -3.010494 3.757015 0.407236
H -3.159737 2.062130 -0.298218
H -0.736501 1.920666 -0.512694
H 0.488092 3.443162 0.104697
7
Debug optimization step
C -1.991970 2.984472 0.050179
C -1.141407 2.812784 -0.100675
O -0.862659 3.923317 0.430866
H -2.985195 3.760944 0.371377
H -3.105658 2.089601 -0.265229
H -0.725271 1.926015 -0.535216
H 0.251961 3.295667 0.048697
7
Debug optimization step
C -1.981812 2.969850 0.055234
C -1.157906 2.821647 -0.097894
O -0.874926 3.949388 0.455263
H -2.965476 3.756454 0.350341
H -3.074548 2.103246 -0.251022
H -0.716142 1.927131 -0.547639
H 0.210610 3.265085 0.035718
7
Debug optimization step
C -1.951583 2.921698 0.081653
C -1.276283 2.858133 -0.071170
O -0.910656 4.032204 0.554758
H -2.870718 3.731300 0.241940
H -2.926586 2.158409 -0.180719
H -0.677448 1.942534 -0.610601
H 0.053075 3.148521 -0.015861
7
Debug optimization step
C -1.985918 2.907598 0.073254
C -1.329548 2.838017 -0.064655
O -0.892613 4.059788 0.574617
H -2.862623 3.728120 0.228341
H -2.913438 2.158672 -0.172726
H -0.678559 1.948965 -0.618119
H 0.102500 3.151639 -0.020712
7
Debug optimization step
C -2.015248 2.886829 -0.008186
C -1.318344 2.932508 -0.061514
O -0.887234 3.989132 0.705509
H -2.868602 3.759615 0.091783
H -2.901583 2.065483 -0.063765
H -0.688620 2.009503 -0.602229
H 0.119433 3.149730 -0.061598
7
Debug optimization step
C -2.012631 2.890309 -0.008049
C -1.311594 2.937055 -0.055353
O -0.888680 3.983150 0.704968
H -2.865347 3.758225 0.086674
H -2.896906 2.065791 -0.060857
H -0.688624 2.011642 -0.604268
H 0.103583 3.146628 -0.063115
7
Debug optimization step
C -2.028288 2.893016 0.008651
C -1.345350 2.952740 -0.028975
O -0.883967 3.968285 0.762378
H -2.832582 3.753019 -0.004988
H -2.825420 2.064874 -0.011184
H -0.702956 2.049227 -0.637049
H 0.058364 3.111639 -0.088833
7
Debug optimization step
C -2.028020 2.892510 0.010186
C -1.345482 2.953791 -0.031041
O -0.884029 3.968081 0.762325
H -2.832563 3.753016 -0.005143
H -2.825365 2.064819 -0.011102
H -0.702997 2.049269 -0.637097
H 0.058257 3.111314 -0.088128
7
Debug optimization step
C -2.028023 2.892974 0.009794
C -1.345359 2.953238 -0.030359
O -0.884055 3.967985 0.762306
H -2.832555 3.753014 -0.005212
H -2.825339 2.064794 -0.011065
H -0.703017 2.049295 -0.637132
H 0.058150 3.111500 -0.088332
7
Debug optimization step
C -2.023535 2.898566 0.013795
C -1.343106 2.955224 -0.028797
O -0.886101 3.960831 0.760729
H -2.831920 3.752877 -0.010557
H -2.823394 2.062878 -0.008214
H -0.704518 2.051042 -0.639340
H 0.052374 3.111382 -0.087616
7
Debug optimization step
C -2.007477 2.924229 0.034152
C -1.350326 2.957483 -0.024172
O -0.891179 3.931913 0.760940
H -2.828381 3.752185 -0.041223
H -2.810843 2.053761 0.007880
H -0.713113 2.060696 -0.652092
H 0.041119 3.112533 -0.085485
7
Debug optimization step
C -2.022062 2.923343 0.039222
C -1.360534 2.944418 -0.030111
O -0.876919 3.940026 0.781360
H -2.827990 3.752418 -0.060992
H -2.801049 2.051903 0.017520
H -0.719319 2.066844 -0.660142
H 0.047674 3.113847 -0.086856
7
Debug optimization step
C -2.019052 2.930452 0.047590
C -1.349790 2.945620 -0.028514
O -0.877073 3.930023 0.782473
H -2.828672 3.752608 -0.074265
H -2.796931 2.049131 0.023904
H -0.723563 2.070858 -0.665772
H 0.034882 3.114107 -0.085416
7
Debug optimization step
C -2.022444 2.943617 0.069225
C -1.381699 2.935090 -0.028151
O -0.865691 3.917086 0.802555
H -2.829494 3.751100 -0.117947
H -2.781183 2.042974 0.044864
H -0.736833 2.083066 -0.684954
H 0.057144 3.119867 -0.085593
7
Debug optimization step
C -2.023555 2.957398 0.089814
C -1.384524 2.937383 -0.021304
O -0.851039 3.899146 0.827603
H -2.831957 3.741729 -0.173741
H -2.765406 2.037228 0.072955
H -0.754832 2.100721 -0.709458
H 0.051115 3.119196 -0.085868
7
Debug optimization step
C -2.031948 2.987970 0.135689
C -1.383796 2.988212 0.026329
O -0.792889 3.828001 0.929216
H -2.845559 3.687965 -0.387491
H -2.710918 2.021430 0.188031
H -0.831185 2.179381 -0.797196
H 0.036096 3.099842 -0.094578
7
Debug optimization step
C -2.031448 2.990669 0.134061
C -1.371457 2.989960 0.026731
O -0.793068 3.825321 0.929520
H -2.844607 3.685029 -0.389835
H -2.710752 2.020928 0.190336
H -0.833630 2.182758 -0.797130
H 0.024763 3.098135 -0.093684
7
Debug optimization step
C -2.032061 3.021152 0.118079
C -1.378199 3.012154 0.023181
O -0.779522 3.793261 0.963163
H -2.825897 3.625081 -0.443703
H -2.695038 2.023061 0.237302
H -0.878765 2.244138 -0.805468
H 0.029282 3.073952 -0.092553
7
Debug optimization step
C -2.031816 3.019903 0.120329
C -1.370671 3.013923 0.026868
O -0.779011 3.790685 0.962659
H -2.829207 3.625138 -0.448668
H -2.693809 2.024730 0.238854
H -0.879113 2.244578 -0.808499
H 0.023428 3.073844 -0.091543
7
Debug optimization step
C -2.032971 3.017223 0.123639
C -1.376755 3.015718 0.033560
O -0.775845 3.788469 0.965841
H -2.834085 3.623912 -0.458400
H -2.690878 2.028257 0.242202
H -0.879915 2.245794 -0.814790
H 0.030250 3.073426 -0.092052
7
Debug optimization step
C -2.032812 3.017287 0.124760
C -1.370615 3.016712 0.034835
O -0.775158 3.787275 0.966644
H -2.835323 3.623003 -0.461708
H -2.690369 2.028863 0.243571
H -0.880518 2.246868 -0.816540
H 0.024597 3.072793 -0.091561
7
Debug optimization step
C -2.034065 3.016694 0.129869
C -1.381942 3.020691 0.044575
O -0.768081 3.783689 0.977223
H -2.840254 3.615347 -0.481835
H -2.685834 2.033651 0.252320
H -0.884278 2.253508 -0.828266
H 0.034256 3.069219 -0.093886
7
Debug optimization step
C -2.033912 3.016905 0.129977
C -1.379756 3.020975 0.044648
O -0.768139 3.783336 0.977134
H -2.840278 3.615093 -0.482238
H -2.685871 2.033612 0.252548
H -0.884456 2.253801 -0.828396
H 0.032213 3.069079 -0.093673
7
Debug optimization step
C -2.033266 3.017911 0.130485
C -1.370595 3.022297 0.045069
O -0.768258 3.781719 0.976974
H -2.840311 3.613715 -0.484325
H -2.685966 2.033489 0.253732
H -0.885367 2.255298 -0.829127
H 0.023563 3.068369 -0.092807
7
Debug optimization step
C -2.033390 3.019524 0.130984
C -1.375973 3.024340 0.047541
O -0.766222 3.779939 0.980552
H -2.839263 3.608908 -0.490342
H -2.685032 2.034224 0.257196
H -0.887851 2.259358 -0.832001
H 0.027531 3.066506 -0.093929
7
Debug optimization step
C -2.033224 3.020146 0.131361
C -1.371318 3.025296 0.048040
O -0.765885 3.778852 0.981041
H -2.839161 3.607456 -0.492428
H -2.684884 2.034360 0.258334
H -0.888780 2.260828 -0.832796
H 0.023053 3.065863 -0.093551
7
Debug optimization step
C -2.034098 3.022563 0.132432
C -1.380379 3.029557 0.053462
O -0.761401 3.775140 0.988316
H -2.837227 3.597561 -0.505290
H -2.682668 2.036381 0.265392
H -0.894377 2.269592 -0.838592
H 0.029950 3.062006 -0.095720
7
Debug optimization step
C -2.033926 3.022778 0.132598
C -1.376888 3.030001 0.053628
O -0.761445 3.774606 0.988219
H -2.837263 3.597122 -0.506014
H -2.682683 2.036381 0.265753
H -0.894725 2.270125 -0.838793
H 0.026731 3.061786 -0.095392
7
Debug optimization step
C -2.033710 3.023231 0.132971
C -1.372147 3.030782 0.054050
O -0.761291 3.773656 0.988425
H -2.837210 3.595994 -0.507704
H -2.682586 2.036494 0.266602
H -0.895527 2.271349 -0.839351
H 0.022272 3.061294 -0.094993
7
Debug optimization step
C -2.033712 3.023230 0.133001
C -1.372196 3.030841 0.054069
O -0.761259 3.773626 0.988476
H -2.837194 3.595916 -0.507806
H -2.682569 2.036511 0.266654
H -0.895575 2.271421 -0.839393
H 0.022305 3.061255 -0.095001
7
Debug optimization step
C -2.033717 3.023269 0.132971
C -1.372194 3.030790 0.054119
O -0.761256 3.773622 0.988482
H -2.837192 3.595908 -0.507817
H -2.682567 2.036513 0.266659
H -0.895580 2.271428 -0.839398
H 0.022306 3.061269 -0.095017
7
Debug optimization step
C -2.033716 3.023262 0.132978
C -1.372196 3.030801 0.054110
O -0.761255 3.773622 0.988483
H -2.837192 3.595907 -0.507819
H -2.682567 2.036514 0.266661
H -0.895581 2.271430 -0.839398
H 0.022307 3.061265 -0.095014
7
Debug optimization step
C -2.033714 3.023241 0.133000
C -1.372205 3.030840 0.054085
O -0.761251 3.773618 0.988489
H -2.837190 3.595898 -0.507831
H -2.682565 2.036516 0.266667
H -0.895586 2.271438 -0.839403
H 0.022312 3.061250 -0.095006
7
Debug optimization step
C -2.033714 3.023245 0.132997
C -1.372205 3.030834 0.054091
O -0.761251 3.773617 0.988490
H -2.837190 3.595896 -0.507833
H -2.682565 2.036516 0.266668
H -0.895587 2.271439 -0.839404
H 0.022312 3.061252 -0.095008
7
Debug optimization step
C -2.033717 3.023266 0.132983
C -1.372207 3.030810 0.054119
O -0.761247 3.773614 0.988495
H -2.837188 3.595888 -0.507844
H -2.682563 2.036518 0.266673
H -0.895592 2.271447 -0.839409
H 0.022314 3.061257 -0.095017
7
Debug optimization step
C -2.033716 3.023256 0.132993
C -1.372211 3.030828 0.054108
O -0.761245 3.773612 0.988498
H -2.837187 3.595883 -0.507850
H -2.682562 2.036519 0.266676
H -0.895595 2.271451 -0.839411
H 0.022317 3.061250 -0.095014
7
Debug optimization step
C -2.033720 3.023281 0.132991
C -1.372236 3.030829 0.054152
O -0.761224 3.773591 0.988532
H -2.837177 3.595832 -0.507918
H -2.682550 2.036530 0.266711
H -0.895627 2.271499 -0.839439
H 0.022335 3.061237 -0.095029
7
Debug optimization step
C -2.033718 3.023259 0.133014
C -1.372244 3.030870 0.054125
O -0.761220 3.773588 0.988538
H -2.837175 3.595823 -0.507930
H -2.682548 2.036532 0.266717
H -0.895632 2.271507 -0.839444
H 0.022339 3.061221 -0.095020
7
Debug optimization step
C -2.033718 3.023264 0.133010
C -1.372244 3.030863 0.054132
O -0.761220 3.773587 0.988539
H -2.837175 3.595822 -0.507931
H -2.682548 2.036532 0.266718
H -0.895633 2.271509 -0.839445
H 0.022339 3.061223 -0.095022
7
Debug optimization step
C -2.033721 3.023286 0.132995
C -1.372246 3.030837 0.054162
O -0.761216 3.773584 0.988545
H -2.837173 3.595812 -0.507944
H -2.682546 2.036534 0.266724
H -0.895639 2.271517 -0.839450
H 0.022341 3.061229 -0.095032
7
Debug optimization step
C -2.033720 3.023282 0.132999
C -1.372247 3.030845 0.054157
O -0.761215 3.773583 0.988546
H -2.837173 3.595811 -0.507946
H -2.682546 2.036535 0.266725
H -0.895640 2.271519 -0.839451
H 0.022342 3.061226 -0.095031
7
Debug optimization step
C -2.033719 3.023267 0.133016
C -1.372256 3.030875 0.054141
O -0.761211 3.773579 0.988553
H -2.837171 3.595800 -0.507960
H -2.682543 2.036537 0.266733
H -0.895646 2.271529 -0.839457
H 0.022346 3.061214 -0.095026
7
Debug optimization step
C -2.033719 3.023269 0.133014
C -1.372256 3.030872 0.054144
O -0.761210 3.773578 0.988554
H -2.837170 3.595799 -0.507962
H -2.682543 2.036537 0.266733
H -0.895647 2.271530 -0.839457
H 0.022347 3.061215 -0.095027
7
Debug optimization step
C -2.033721 3.023281 0.133006
C -1.372256 3.030858 0.054160
O -0.761208 3.773576 0.988557
H -2.837169 3.595794 -0.507968
H -2.682542 2.036538 0.266737
H -0.895650 2.271535 -0.839460
H 0.022348 3.061218 -0.095032
7
Debug optimization step
C -2.033721 3.023276 0.133019
C -1.372268 3.030882 0.054158
O -0.761200 3.773568 0.988570
H -2.837165 3.595774 -0.507995
H -2.682538 2.036543 0.266750
H -0.895662 2.271553 -0.839471
H 0.022355 3.061205 -0.095031
7
Debug optimization step
C -2.033723 3.023298 0.133004
C -1.372269 3.030856 0.054188
O -0.761196 3.773564 0.988576
H -2.837163 3.595764 -0.508007
H -2.682536 2.036545 0.266756
H -0.895668 2.271562 -0.839476
H 0.022357 3.061211 -0.095041
7
Debug optimization step
C -2.033723 3.023295 0.133007
C -1.372270 3.030861 0.054185
O -0.761196 3.773564 0.988577
H -2.837163 3.595763 -0.508009
H -2.682535 2.036545 0.266757
H -0.895669 2.271563 -0.839476
H 0.022357 3.061209 -0.095040
7
Debug optimization step
C -2.033722 3.023283 0.133020
C -1.372275 3.030884 0.054171
O -0.761193 3.773561 0.988581
H -2.837162 3.595757 -0.508018
H -2.682534 2.036546 0.266762
H -0.895673 2.271569 -0.839480
H 0.022360 3.061200 -0.095036
7
Debug optimization step
C -2.033724 3.023302 0.133008
C -1.372278 3.030864 0.054198
O -0.761188 3.773556 0.988589
H -2.837160 3.595745 -0.508033
H -2.682531 2.036549 0.266770
H -0.895680 2.271580 -0.839487
H 0.022363 3.061203 -0.095045
7
Debug optimization step
C -2.033724 3.023300 0.133010
C -1.372279 3.030868 0.054196
O -0.761188 3.773556 0.988590
H -2.837159 3.595744 -0.508034
H -2.682531 2.036549 0.266770
H -0.895681 2.271581 -0.839487
H 0.022363 3.061202 -0.095044
7
Debug optimization step
C -2.076680 3.035964 0.314693
C -0.742173 2.904586 -0.393150
O 0.267716 3.483320 -0.101692
H -2.834193 3.381849 -0.398567
H -2.391131 2.052558 0.683730
H -0.774628 2.195506 -1.255224
H -2.009109 3.739017 1.150210
7
Debug optimization step
C -2.076666 3.035982 0.314677
C -0.742149 2.904588 -0.393150
O 0.267695 3.483300 -0.101656
H -2.834209 3.381818 -0.398568
H -2.391074 2.052579 0.683692
H -0.774688 2.195509 -1.255207
H -2.009108 3.739024 1.150212
7
Debug optimization step
C -2.076637 3.036018 0.314647
C -0.742103 2.904594 -0.393149
O 0.267660 3.483261 -0.101593
H -2.834236 3.381759 -0.398571
H -2.390964 2.052619 0.683620
H -0.774804 2.195512 -1.255173
H -2.009115 3.739038 1.150219
7
Debug optimization step
C -2.076644 3.036010 0.314655
C -0.742113 2.904593 -0.393148
O 0.267670 3.483270 -0.101610
H -2.834228 3.381773 -0.398572
H -2.390989 2.052610 0.683636
H -0.774779 2.195511 -1.255180
H -2.009117 3.739034 1.150220
7
Debug optimization step
C -2.076656 3.035995 0.314668
C -0.742133 2.904591 -0.393149
O 0.267688 3.483286 -0.101640
H -2.834214 3.381799 -0.398572
H -2.391037 2.052592 0.683669
H -0.774729 2.195510 -1.255195
H -2.009117 3.739027 1.150219
7
Debug optimization step
C -2.076653 3.035998 0.314665
C -0.742129 2.904591 -0.393149
O 0.267683 3.483283 -0.101633
H -2.834218 3.381793 -0.398572
H -2.391026 2.052596 0.683661
H -0.774740 2.195510 -1.255191
H -2.009116 3.739029 1.150218
7
Debug optimization step
C -2.076648 3.036005 0.314659
C -0.742120 2.904592 -0.393149
O 0.267674 3.483276 -0.101619
H -2.834225 3.381782 -0.398571
H -2.391005 2.052604 0.683647
H -0.774762 2.195511 -1.255185
H -2.009115 3.739032 1.150218
7
Debug optimization step
C -2.076649 3.036003 0.314660
C -0.742122 2.904592 -0.393149
O 0.267677 3.483277 -0.101622
H -2.834223 3.381784 -0.398571
H -2.391010 2.052602 0.683650
H -0.774757 2.195510 -1.255187
H -2.009115 3.739031 1.150218
7
Debug optimization step
C -2.076651 3.036000 0.314663
C -0.742126 2.904591 -0.393148
O 0.267681 3.483280 -0.101629
H -2.834220 3.381789 -0.398572
H -2.391019 2.052599 0.683656
H -0.774748 2.195510 -1.255189
H -2.009117 3.739030 1.150219
7
Debug optimization step
C -2.076651 3.036001 0.314662
C -0.742125 2.904591 -0.393149
O 0.267680 3.483280 -0.101627
H -2.834220 3.381788 -0.398572
H -2.391017 2.052599 0.683655
H -0.774750 2.195510 -1.255189
H -2.009116 3.739030 1.150219
7
Debug optimization step
C -2.076680 3.035964 0.314693
C -0.742173 2.904586 -0.393150
O 0.267716 3.483320 -0.101692
H -2.834193 3.381849 -0.398567
H -2.391131 2.052558 0.683730
H -0.774628 2.195506 -1.255224
H -2.009109 3.739017 1.150210
7
Debug optimization step
C -2.076666 3.035982 0.314677
C -0.742149 2.904588 -0.393150
O 0.267695 3.483300 -0.101656
H -2.834209 3.381818 -0.398568
H -2.391074 2.052579 0.683692
H -0.774688 2.195509 -1.255207
H -2.009108 3.739024 1.150212
7
Debug optimization step
C -2.076637 3.036018 0.314647
C -0.742103 2.904594 -0.393149
O 0.267660 3.483261 -0.101593
H -2.834236 3.381759 -0.398571
H -2.390964 2.052619 0.683620
H -0.774804 2.195512 -1.255173
H -2.009115 3.739038 1.150219
7
Debug optimization step
C -2.076644 3.036010 0.314655
C -0.742113 2.904593 -0.393148
O 0.267670 3.483270 -0.101610
H -2.834228 3.381773 -0.398572
H -2.390989 2.052610 0.683636
H -0.774779 2.195511 -1.255180
H -2.009117 3.739034 1.150220
7
Debug optimization step
C -2.076656 3.035995 0.314668
C -0.742133 2.904591 -0.393149
O 0.267688 3.483286 -0.101640
H -2.834214 3.381799 -0.398572
H -2.391037 2.052592 0.683669
H -0.774729 2.195510 -1.255195
H -2.009117 3.739027 1.150219
7
Debug optimization step
C -2.076653 3.035998 0.314665
C -0.742129 2.904591 -0.393149
O 0.267683 3.483283 -0.101633
H -2.834218 3.381793 -0.398572
H -2.391026 2.052596 0.683661
H -0.774740 2.195510 -1.255191
H -2.009116 3.739029 1.150218
7
Debug optimization step
C -2.076648 3.036005 0.314659
C -0.742120 2.904592 -0.393149
O 0.267674 3.483276 -0.101619
H -2.834225 3.381782 -0.398571
H -2.391005 2.052604 0.683647
H -0.774762 2.195511 -1.255185
H -2.009115 3.739032 1.150218
7
Debug optimization step
C -2.076649 3.036003 0.314660
C -0.742122 2.904592 -0.393149
O 0.267677 3.483277 -0.101622
H -2.834223 3.381784 -0.398571
H -2.391010 2.052602 0.683650
H -0.774757 2.195510 -1.255187
H -2.009115 3.739031 1.150218
7
Debug optimization step
C -2.076651 3.036000 0.314663
C -0.742126 2.904591 -0.393148
O 0.267681 3.483280 -0.101629
H -2.834220 3.381789 -0.398572
H -2.391019 2.052599 0.683656
H -0.774748 2.195510 -1.255189
H -2.009117 3.739030 1.150219
7
Debug optimization step
C -2.076651 3.036001 0.314662
C -0.742125 2.904591 -0.393149
O 0.267680 3.483280 -0.101627
H -2.834220 3.381788 -0.398572
H -2.391017 2.052599 0.683655
H -0.774750 2.195510 -1.255189
H -2.009116 3.739030 1.150219
7
Debug optimization step
C -2.536630 2.876592 0.010298
C -1.223282 2.797910 -0.091664
O -0.468872 3.824478 0.321901
H -3.011181 3.749205 0.419838
H -3.165650 2.067469 -0.310679
H -0.738631 1.918455 -0.500919
H 0.584048 3.558691 0.151224
7
Debug optimization step
C -2.522920 2.880254 0.011292
C -1.221109 2.799421 -0.091277
O -0.548961 3.842068 0.334403
H -3.011233 3.749603 0.419293
H -3.165562 2.067008 -0.310163
H -0.738615 1.918513 -0.501481
H 0.648201 3.535933 0.137933
7
Debug optimization step
C -2.252515 2.945064 0.027579
C -1.190521 2.818081 -0.086795
O -0.698521 3.846682 0.358194
H -3.010494 3.757015 0.407236
H -3.159737 2.062130 -0.298218
H -0.736501 1.920666 -0.512694
H 0.488092 3.443162 0.104697
7
Debug optimization step
C -1.991970 2.984472 0.050179
C -1.141407 2.812784 -0.100675
O -0.862659 3.923317 0.430866
H -2.985195 3.760944 0.371377
H -3.105658 2.089601 -0.265229
H -0.725271 1.926015 -0.535216
H 0.251961 3.295667 0.048697
7
Debug optimization step
C -1.981812 2.969850 0.055234
C -1.157906 2.821647 -0.097894
O -0.874926 3.949388 0.455263
H -2.965476 3.756454 0.350341
H -3.074548 2.103246 -0.251022
H -0.716142 1.927131 -0.547639
H 0.210610 3.265085 0.035718
7
Debug optimization step
C -1.951583 2.921698 0.081653
C -1.276283 2.858133 -0.071170
O -0.910656 4.032204 0.554758
H -2.870718 3.731300 0.241940
H -2.926586 2.158409 -0.180719
H -0.677448 1.942534 -0.610601
H 0.053075 3.148521 -0.015861
7
Debug optimization step
C -1.985918 2.907598 0.073254
C -1.329548 2.838017 -0.064655
O -0.892613 4.059788 0.574617
H -2.862623 3.728120 0.228341
H -2.913438 2.158672 -0.172726
H -0.678559 1.948965 -0.618119
H 0.102500 3.151639 -0.020712
7
Debug optimization step
C -2.015248 2.886829 -0.008186
C -1.318344 2.932508 -0.061514
O -0.887234 3.989132 0.705509
H -2.868602 3.759615 0.091783
H -2.901583 2.065483 -0.063765
H -0.688620 2.009503 -0.602229
H 0.119433 3.149730 -0.061598
7
Debug optimization step
C -2.012631 2.890309 -0.008049
C -1.311594 2.937055 -0.055353
O -0.888680 3.983150 0.704968
H -2.865347 3.758225 0.086674
H -2.896906 2.065791 -0.060857
H -0.688624 2.011642 -0.604268
H 0.103583 3.146628 -0.063115
7
Debug optimization step
C -2.028288 2.893016 0.008651
C -1.345350 2.952740 -0.028975
O -0.883967 3.968285 0.762378
H -2.832582 3.753019 -0.004988
H -2.825420 2.064874 -0.011184
H -0.702956 2.049227 -0.637049
H 0.058364 3.111639 -0.088833
7
Debug optimization step
C -2.028020 2.892510 0.010186
C -1.345482 2.953791 -0.031041
O -0.884029 3.968081 0.762325
H -2.832563 3.753016 -0.005143
H -2.825365 2.064819 -0.011102
H -0.702997 2.049269 -0.637097
H 0.058257 3.111314 -0.088128
7
Debug optimization step
C -2.028023 2.892974 0.009794
C -1.345359 2.953238 -0.030359
O -0.884055 3.967985 0.762306
H -2.832555 3.753014 -0.005212
H -2.825339 2.064794 -0.011065
H -0.703017 2.049295 -0.637132
H 0.058150 3.111500 -0.088332
7
Debug optimization step
C -2.023535 2.898566 0.013795
C -1.343106 2.955224 -0.028797
O -0.886101 3.960831 0.760729
H -2.831920 3.752877 -0.010557
H -2.823394 2.062878 -0.008214
H -0.704518 2.051042 -0.639340
H 0.052374 3.111382 -0.087616
7
Debug optimization step
C -2.007477 2.924229 0.034152
C -1.350326 2.957483 -0.024172
O -0.891179 3.931913 0.760940
H -2.828381 3.752185 -0.041223
H -2.810843 2.053761 0.007880
H -0.713113 2.060696 -0.652092
H 0.041119 3.112533 -0.085485
7
Debug optimization step
C -2.022062 2.923343 0.039222
C -1.360534 2.944418 -0.030111
O -0.876919 3.940026 0.781360
H -2.827990 3.752418 -0.060992
H -2.801049 2.051903 0.017520
H -0.719319 2.066844 -0.660142
H 0.047674 3.113847 -0.086856
7
Debug optimization step
C -2.019052 2.930452 0.047590
C -1.349790 2.945620 -0.028514
O -0.877073 3.930023 0.782473
H -2.828672 3.752608 -0.074265
H -2.796931 2.049131 0.023904
H -0.723563 2.070858 -0.665772
H 0.034882 3.114107 -0.085416
7
Debug optimization step
C -2.022444 2.943617 0.069225
C -1.381699 2.935090 -0.028151
O -0.865691 3.917086 0.802555
H -2.829494 3.751100 -0.117947
H -2.781183 2.042974 0.044864
H -0.736833 2.083066 -0.684954
H 0.057144 3.119867 -0.085593
7
Debug optimization step
C -2.023555 2.957398 0.089814
C -1.384524 2.937383 -0.021304
O -0.851039 3.899146 0.827603
H -2.831957 3.741729 -0.173741
H -2.765406 2.037228 0.072955
H -0.754832 2.100721 -0.709458
H 0.051115 3.119196 -0.085868
7
Debug optimization step
C -2.031948 2.987970 0.135689
C -1.383796 2.988212 0.026329
O -0.792889 3.828001 0.929216
H -2.845559 3.687965 -0.387491
H -2.710918 2.021430 0.188031
H -0.831185 2.179381 -0.797196
H 0.036096 3.099842 -0.094578
7
Debug optimization step
C -2.031448 2.990669 0.134061
C -1.371457 2.989960 0.026731
O -0.793068 3.825321 0.929520
H -2.844607 3.685029 -0.389835
H -2.710752 2.020928 0.190336
H -0.833630 2.182758 -0.797130
H 0.024763 3.098135 -0.093684
7
Debug optimization step
C -2.032061 3.021152 0.118079
C -1.378199 3.012154 0.023181
O -0.779522 3.793261 0.963163
H -2.825897 3.625081 -0.443703
H -2.695038 2.023061 0.237302
H -0.878765 2.244138 -0.805468
H 0.029282 3.073952 -0.092553
7
Debug optimization step
C -2.031816 3.019903 0.120329
C -1.370671 3.013923 0.026868
O -0.779011 3.790685 0.962659
H -2.829207 3.625138 -0.448668
H -2.693809 2.024730 0.238854
H -0.879113 2.244578 -0.808499
H 0.023428 3.073844 -0.091543
7
Debug optimization step
C -2.032971 3.017223 0.123639
C -1.376755 3.015718 0.033560
O -0.775845 3.788469 0.965841
H -2.834085 3.623912 -0.458400
H -2.690878 2.028257 0.242202
H -0.879915 2.245794 -0.814790
H 0.030250 3.073426 -0.092052
7
Debug optimization step
C -2.032812 3.017287 0.124760
C -1.370615 3.016712 0.034835
O -0.775158 3.787275 0.966644
H -2.835323 3.623003 -0.461708
H -2.690369 2.028863 0.243571
H -0.880518 2.246868 -0.816540
H 0.024597 3.072793 -0.091561
7
Debug optimization step
C -2.034065 3.016694 0.129869
C -1.381942 3.020691 0.044575
O -0.768081 3.783689 0.977223
H -2.840254 3.615347 -0.481835
H -2.685834 2.033651 0.252320
H -0.884278 2.253508 -0.828266
H 0.034256 3.069219 -0.093886
7
Debug optimization step
C -2.033912 3.016905 0.129977
C -1.379756 3.020975 0.044648
O -0.768139 3.783336 0.977134
H -2.840278 3.615093 -0.482238
H -2.685871 2.033612 0.252548
H -0.884456 2.253801 -0.828396
H 0.032213 3.069079 -0.093673
7
Debug optimization step
C -2.033266 3.017911 0.130485
C -1.370595 3.022297 0.045069
O -0.768258 3.781719 0.976974
H -2.840311 3.613715 -0.484325
H -2.685966 2.033489 0.253732
H -0.885367 2.255298 -0.829127
H 0.023563 3.068369 -0.092807
7
Debug optimization step
C -2.033390 3.019524 0.130984
C -1.375973 3.024340 0.047541
O -0.766222 3.779939 0.980552
H -2.839263 3.608908 -0.490342
H -2.685032 2.034224 0.257196
H -0.887851 2.259358 -0.832001
H 0.027531 3.066506 -0.093929
7
Debug optimization step
C -2.033224 3.020146 0.131361
C -1.371318 3.025296 0.048040
O -0.765885 3.778852 0.981041
H -2.839161 3.607456 -0.492428
H -2.684884 2.034360 0.258334
H -0.888780 2.260828 -0.832796
H 0.023053 3.065863 -0.093551
7
Debug optimization step
C -2.034098 3.022563 0.132432
C -1.380379 3.029557 0.053462
O -0.761401 3.775140 0.988316
H -2.837227 3.597561 -0.505290
H -2.682668 2.036381 0.265392
H -0.894377 2.269592 -0.838592
H 0.029950 3.062006 -0.095720
7
Debug optimization step
C -2.033926 3.022778 0.132598
C -1.376888 3.030001 0.053628
O -0.761445 3.774606 0.988219
H -2.837263 3.597122 -0.506014
H -2.682683 2.036381 0.265753
H -0.894725 2.270125 -0.838793
H 0.026731 3.061786 -0.095392
7
Debug optimization step
C -2.033710 3.023231 0.132971
C -1.372147 3.030782 0.054050
O -0.761291 3.773656 0.988425
H -2.837210 3.595994 -0.507704
H -2.682586 2.036494 0.266602
H -0.895527 2.271349 -0.839351
H 0.022272 3.061294 -0.094993
7
Debug optimization step
C -2.033712 3.023230 0.133001
C -1.372196 3.030841 0.054069
O -0.761259 3.773626 0.988476
H -2.837194 3.595916 -0.507806
H -2.682569 2.036511 0.266654
H -0.895575 2.271421 -0.839393
H 0.022305 3.061255 -0.095001
7
Debug optimization step
C -2.033717 3.023269 0.132971
C -1.372194 3.030790 0.054119
O -0.761256 3.773622 0.988482
H -2.837192 3.595908 -0.507817
H -2.682567 2.036513 0.266659
H -0.895580 2.271428 -0.839398
H 0.022306 3.061269 -0.095017
7
Debug optimization step
C -2.033716 3.023262 0.132978
C -1.372196 3.030801 0.054110
O -0.761255 3.773622 0.988483
H -2.837192 3.595907 -0.507819
H -2.682567 2.036514 0.266661
H -0.895581 2.271430 -0.839398
H 0.022307 3.061265 -0.095014
7
Debug optimization step
C -2.033714 3.023241 0.133000
C -1.372205 3.030840 0.054085
O -0.761251 3.773618 0.988489
H -2.837190 3.595898 -0.507831
H -2.682565 2.036516 0.266667
H -0.895586 2.271438 -0.839403
H 0.022312 3.061250 -0.095006
7
Debug optimization step
C -2.033714 3.023245 0.132997
C -1.372205 3.030834 0.054091
O -0.761251 3.773617 0.988490
H -2.837190 3.595896 -0.507833
H -2.682565 2.036516 0.266668
H -0.895587 2.271439 -0.839404
H 0.022312 3.061252 -0.095008
7
Debug optimization step
C -2.033717 3.023266 0.132983
C -1.372207 3.030810 0.054119
O -0.761247 3.773614 0.988495
H -2.837188 3.595888 -0.507844
H -2.682563 2.036518 0.266673
H -0.895592 2.271447 -0.839409
H 0.022314 3.061257 -0.095017
7
Debug optimization step
C -2.033716 3.023256 0.132993
C -1.372211 3.030828 0.054108
O -0.761245 3.773612 0.988498
H -2.837187 3.595883 -0.507850
H -2.682562 2.036519 0.266676
H -0.895595 2.271451 -0.839411
H 0.022317 3.061250 -0.095014
7
Debug optimization step
C -2.033720 3.023281 0.132991
C -1.372236 3.030829 0.054152
O -0.761224 3.773591 0.988532
H -2.837177 3.595832 -0.507918
H -2.682550 2.036530 0.266711
H -0.895627 2.271499 -0.839439
H 0.022335 3.061237 -0.095029
7
Debug optimization step
C -2.033718 3.023259 0.133014
C -1.372244 3.030870 0.054125
O -0.761220 3.773588 0.988538
H -2.837175 3.595823 -0.507930
H -2.682548 2.036532 0.266717
H -0.895632 2.271507 -0.839444
H 0.022339 3.061221 -0.095020
7
Debug optimization step
C -2.033718 3.023264 0.133010
C -1.372244 3.030863 0.054132
O -0.761220 3.773587 0.988539
H -2.837175 3.595822 -0.507931
H -2.682548 2.036532 0.266718
H -0.895633 2.271509 -0.839445
H 0.022339 3.061223 -0.095022
7
Debug optimization step
C -2.033721 3.023286 0.132995
C -1.372246 3.030837 0.054162
O -0.761216 3.773584 0.988545
H -2.837173 3.595812 -0.507944
H -2.682546 2.036534 0.266724
H -0.895639 2.271517 -0.839450
H 0.022341 3.061229 -0.095032
7
Debug optimization step
C -2.033720 3.023282 0.132999
C -1.372247 3.030845 0.054157
O -0.761215 3.773583 0.988546
H -2.837173 3.595811 -0.507946
H -2.682546 2.036535 0.266725
H -0.895640 2.271519 -0.839451
H 0.022342 3.061226 -0.095031
7
Debug optimization step
C -2.033719 3.023267 0.133016
C -1.372256 3.030875 0.054141
O -0.761211 3.773579 0.988553
H -2.837171 3.595800 -0.507960
H -2.682543 2.036537 0.266733
H -0.895646 2.271529 -0.839457
H 0.022346 3.061214 -0.095026
7
Debug optimization step
C -2.033719 3.023269 0.133014
C -1.372256 3.030872 0.054144
O -0.761210 3.773578 0.988554
H -2.837170 3.595799 -0.507962
H -2.682543 2.036537 0.266733
H -0.895647 2.271530 -0.839457
H 0.022347 3.061215 -0.095027
7
Debug optimization step
C -2.033721 3.023281 0.133006
C -1.372256 3.030858 0.054160
O -0.761208 3.773576 0.988557
H -2.837169 3.595794 -0.507968
H -2.682542 2.036538 0.266737
H -0.895650 2.271535 -0.839460
H 0.022348 3.061218 -0.095032
7
Debug optimization step
C -2.033721 3.023276 0.133019
C -1.372268 3.030882 0.054158
O -0.761200 3.773568 0.988570
H -2.837165 3.595774 -0.507995
H -2.682538 2.036543 0.266750
H -0.895662 2.271553 -0.839471
H 0.022355 3.061205 -0.095031
7
Debug optimization step
C -2.033723 3.023298 0.133004
C -1.372269 3.030856 0.054188
O -0.761196 3.773564 0.988576
H -2.837163 3.595764 -0.508007
H -2.682536 2.036545 0.266756
H -0.895668 2.271562 -0.839476
H 0.022357 3.061211 -0.095041
7
Debug optimization step
C -2.033723 3.023295 0.133007
C -1.372270 3.030861 0.054185
O -0.761196 3.773564 0.988577
H -2.837163 3.595763 -0.508009
H -2.682535 2.036545 0.266757
H -0.895669 2.271563 -0.839476
H 0.022357 3.061209 -0.095040
7
Debug optimization step
C -2.033722 3.023283 0.133020
C -1.372275 3.030884 0.054171
O -0.761193 3.773561 0.988581
H -2.837162 3.595757 -0.508018
H -2.682534 2.036546 0.266762
H -0.895673 2.271569 -0.839480
H 0.022360 3.061200 -0.095036
7
Debug optimization step
C -2.033724 3.023302 0.133008
C -1.372278 3.030864 0.054198
O -0.761188 3.773556 0.988589
H -2.837160 3.595745 -0.508033
H -2.682531 2.036549 0.266770
H -0.895680 2.271580 -0.839487
H 0.022363 3.061203 -0.095045
7
Debug optimization step
C -2.033724 3.023300 0.133010
C -1.372279 3.030868 0.054196
O -0.761188 3.773556 0.988590
H -2.837159 3.595744 -0.508034
H -2.682531 2.036549 0.266770
H -0.895681 2.271581 -0.839487
H 0.022363 3.061202 -0.095044
7
Debug optimization step
C -2.536630 2.876592 0.010298
C -1.223282 2.797910 -0.091664
O -0.468872 3.824478 0.321901
H -3.011181 3.749205 0.419838
H -3.165650 2.067469 -0.310679
H -0.738631 1.918455 -0.500919
H 0.584048 3.558691 0.151224
7
Debug optimization step
C -2.522920 2.880254 0.011292
C -1.221109 2.799421 -0.091277
O -0.548961 3.842068 0.334403
H -3.011233 3.749603 0.419293
H -3.165562 2.067008 -0.310163
H -0.738615 1.918513 -0.501481
H 0.648201 3.535933 0.137933
7
Debug optimization step
C -2.252515 2.945064 0.027579
C -1.190521 2.818081 -0.086795
O -0.698521 3.846682 0.358194
H -3.010494 3.757015 0.407236
H -3.159737 2.062130 -0.298218
H -0.736501 1.920666 -0.512694
H 0.488092 3.443162 0.104697
7
Debug optimization step
C -1.991970 2.984472 0.050179
C -1.141407 2.812784 -0.100675
O -0.862659 3.923317 0.430866
H -2.985195 3.760944 0.371377
H -3.105658 2.089601 -0.265229
H -0.725271 1.926015 -0.535216
H 0.251961 3.295667 0.048697
7
Debug optimization step
C -1.981812 2.969850 0.055234
C -1.157906 2.821647 -0.097894
O -0.874926 3.949388 0.455263
H -2.965476 3.756454 0.350341
H -3.074548 2.103246 -0.251022
H -0.716142 1.927131 -0.547639
H 0.210610 3.265085 0.035718
7
Debug optimization step
C -1.951583 2.921698 0.081653
C -1.276283 2.858133 -0.071170
O -0.910656 4.032204 0.554758
H -2.870718 3.731300 0.241940
H -2.926586 2.158409 -0.180719
H -0.677448 1.942534 -0.610601
H 0.053075 3.148521 -0.015861
7
Debug optimization step
C -1.985918 2.907598 0.073254
C -1.329548 2.838017 -0.064655
O -0.892613 4.059788 0.574617
H -2.862623 3.728120 0.228341
H -2.913438 2.158672 -0.172726
H -0.678559 1.948965 -0.618119
H 0.102500 3.151639 -0.020712
7
Debug optimization step
C -2.015248 2.886829 -0.008186
C -1.318344 2.932508 -0.061514
O -0.887234 3.989132 0.705509
H -2.868602 3.759615 0.091783
H -2.901583 2.065483 -0.063765
H -0.688620 2.009503 -0.602229
H 0.119433 3.149730 -0.061598
7
Debug optimization step
C -2.012631 2.890309 -0.008049
C -1.311594 2.937055 -0.055353
O -0.888680 3.983150 0.704968
H -2.865347 3.758225 0.086674
H -2.896906 2.065791 -0.060857
H -0.688624 2.011642 -0.604268
H 0.103583 3.146628 -0.063115
7
Debug optimization step
C -2.028288 2.893016 0.008651
C -1.345350 2.952740 -0.028975
O -0.883967 3.968285 0.762378
H -2.832582 3.753019 -0.004988
H -2.825420 2.064874 -0.011184
H -0.702956 2.049227 -0.637049
H 0.058364 3.111639 -0.088833
7
Debug optimization step
C -2.028020 2.892510 0.010186
C -1.345482 2.953791 -0.031041
O -0.884029 3.968081 0.762325
H -2.832563 3.753016 -0.005143
H -2.825365 2.064819 -0.011102
H -0.702997 2.049269 -0.637097
H 0.058257 3.111314 -0.088128
7
Debug optimization step
C -2.028023 2.892974 0.009794
C -1.345359 2.953238 -0.030359
O -0.884055 3.967985 0.762306
H -2.832555 3.753014 -0.005212
H -2.825339 2.064794 -0.011065
H -0.703017 2.049295 -0.637132
H 0.058150 3.111500 -0.088332
7
Debug optimization step
C -2.023535 2.898566 0.013795
C -1.343106 2.955224 -0.028797
O -0.886101 3.960831 0.760729
H -2.831920 3.752877 -0.010557
H -2.823394 2.062878 -0.008214
H -0.704518 2.051042 -0.639340
H 0.052374 3.111382 -0.087616
7
Debug optimization step
C -2.007477 2.924229 0.034152
C -1.350326 2.957483 -0.024172
O -0.891179 3.931913 0.760940
H -2.828381 3.752185 -0.041223
H -2.810843 2.053761 0.007880
H -0.713113 2.060696 -0.652092
H 0.041119 3.112533 -0.085485
7
Debug optimization step
C -2.022062 2.923343 0.039222
C -1.360534 2.944418 -0.030111
O -0.876919 3.940026 0.781360
H -2.827990 3.752418 -0.060992
H -2.801049 2.051903 0.017520
H -0.719319 2.066844 -0.660142
H 0.047674 3.113847 -0.086856
7
Debug optimization step
C -2.019052 2.930452 0.047590
C -1.349790 2.945620 -0.028514
O -0.877073 3.930023 0.782473
H -2.828672 3.752608 -0.074265
H -2.796931 2.049131 0.023904
H -0.723563 2.070858 -0.665772
H 0.034882 3.114107 -0.085416
7
Debug optimization step
C -2.022444 2.943617 0.069225
C -1.381699 2.935090 -0.028151
O -0.865691 3.917086 0.802555
H -2.829494 3.751100 -0.117947
H -2.781183 2.042974 0.044864
H -0.736833 2.083066 -0.684954
H 0.057144 3.119867 -0.085593
7
Debug optimization step
C -2.023555 2.957398 0.089814
C -1.384524 2.937383 -0.021304
O -0.851039 3.899146 0.827603
H -2.831957 3.741729 -0.173741
H -2.765406 2.037228 0.072955
H -0.754832 2.100721 -0.709458
H 0.051115 3.119196 -0.085868
7
Debug optimization step
C -2.031948 2.987970 0.135689
C -1.383796 2.988212 0.026329
O -0.792889 3.828001 0.929216
H -2.845559 3.687965 -0.387491
H -2.710918 2.021430 0.188031
H -0.831185 2.179381 -0.797196
H 0.036096 3.099842 -0.094578
7
Debug optimization step
C -2.031448 2.990669 0.134061
C -1.371457 2.989960 0.026731
O -0.793068 3.825321 0.929520
H -2.844607 3.685029 -0.389835
H -2.710752 2.020928 0.190336
H -0.833630 2.182758 -0.797130
H 0.024763 3.098135 -0.093684
7
Debug optimization step
C -2.032061 3.021152 0.118079
C -1.378199 3.012154 0.023181
O -0.779522 3.793261 0.963163
H -2.825897 3.625081 -0.443703
H -2.695038 2.023061 0.237302
H -0.878765 2.244138 -0.805468
H 0.029282 3.073952 -0.092553
7
Debug optimization step
C -2.031816 3.019903 0.120329
C -1.370671 3.013923 0.026868
O -0.779011 3.790685 0.962659
H -2.829207 3.625138 -0.448668
H -2.693809 2.024730 0.238854
H -0.879113 2.244578 -0.808499
H 0.023428 3.073844 -0.091543
7
Debug optimization step
C -2.032971 3.017223 0.123639
C -1.376755 3.015718 0.033560
O -0.775845 3.788469 0.965841
H -2.834085 3.623912 -0.458400
H -2.690878 2.028257 0.242202
H -0.879915 2.245794 -0.814790
H 0.030250 3.073426 -0.092052
7
Debug optimization step
C -2.032812 3.017287 0.124760
C -1.370615 3.016712 0.034835
O -0.775158 3.787275 0.966644
H -2.835323 3.623003 -0.461708
H -2.690369 2.028863 0.243571
H -0.880518 2.246868 -0.816540
H 0.024597 3.072793 -0.091561
7
Debug optimization step
C -2.034065 3.016694 0.129869
C -1.381942 3.020691 0.044575
O -0.768081 3.783689 0.977223
H -2.840254 3.615347 -0.481835
H -2.685834 2.033651 0.252320
H -0.884278 2.253508 -0.828266
H 0.034256 3.069219 -0.093886
7
Debug optimization step
C -2.033912 3.016905 0.129977
C -1.379756 3.020975 0.044648
O -0.768139 3.783336 0.977134
H -2.840278 3.615093 -0.482238
H -2.685871 2.033612 0.252548
H -0.884456 2.253801 -0.828396
H 0.032213 3.069079 -0.093673
7
Debug optimization step
C -2.033266 3.017911 0.130485
C -1.370595 3.022297 0.045069
O -0.768258 3.781719 0.976974
H -2.840311 3.613715 -0.484325
H -2.685966 2.033489 0.253732
H -0.885367 2.255298 -0.829127
H 0.023563 3.068369 -0.092807
7
Debug optimization step
C -2.033390 3.019524 0.130984
C -1.375973 3.024340 0.047541
O -0.766222 3.779939 0.980552
H -2.839263 3.608908 -0.490342
H -2.685032 2.034224 0.257196
H -0.887851 2.259358 -0.832001
H 0.027531 3.066506 -0.093929
7
Debug optimization step
C -2.033224 3.020146 0.131361
C -1.371318 3.025296 0.048040
O -0.765885 3.778852 0.981041
H -2.839161 3.607456 -0.492428
H -2.684884 2.034360 0.258334
H -0.888780 2.260828 -0.832796
H 0.023053 3.065863 -0.093551
7
Debug optimization step
C -2.034098 3.022563 0.132432
C -1.380379 3.029557 0.053462
O -0.761401 3.775140 0.988316
H -2.837227 3.597561 -0.505290
H -2.682668 2.036381 0.265392
H -0.894377 2.269592 -0.838592
H 0.029950 3.062006 -0.095720
7
Debug optimization step
C -2.033926 3.022778 0.132598
C -1.376888 3.030001 0.053628
O -0.761445 3.774606 0.988219
H -2.837263 3.597122 -0.506014
H -2.682683 2.036381 0.265753
H -0.894725 2.270125 -0.838793
H 0.026731 3.061786 -0.095392
7
Debug optimization step
C -2.033710 3.023231 0.132971
C -1.372147 3.030782 0.054050
O -0.761291 3.773656 0.988425
H -2.837210 3.595994 -0.507704
H -2.682586 2.036494 0.266602
H -0.895527 2.271349 -0.839351
H 0.022272 3.061294 -0.094993
7
Debug optimization step
C -2.033712 3.023230 0.133001
C -1.372196 3.030841 0.054069
O -0.761259 3.773626 0.988476
H -2.837194 3.595916 -0.507806
H -2.682569 2.036511 0.266654
H -0.895575 2.271421 -0.839393
H 0.022305 3.061255 -0.095001
7
Debug optimization step
C -2.033717 3.023269 0.132971
C -1.372194 3.030790 0.054119
O -0.761256 3.773622 0.988482
H -2.837192 3.595908 -0.507817
H -2.682567 2.036513 0.266659
H -0.895580 2.271428 -0.839398
H 0.022306 3.061269 -0.095017
7
Debug optimization step
C -2.033716 3.023262 0.132978
C -1.372196 3.030801 0.054110
O -0.761255 3.773622 0.988483
H -2.837192 3.595907 -0.507819
H -2.682567 2.036514 0.266661
H -0.895581 2.271430 -0.839398
H 0.022307 3.061265 -0.095014
7
Debug optimization step
C -2.033714 3.023241 0.133000
C -1.372205 3.030840 0.054085
O -0.761251 3.773618 0.988489
H -2.837190 3.595898 -0.507831
H -2.682565 2.036516 0.266667
H -0.895586 2.271438 -0.839403
H 0.022312 3.061250 -0.095006
7
Debug optimization step
C -2.033714 3.023245 0.132997
C -1.372205 3.030834 0.054091
O -0.761251 3.773617 0.988490
H -2.837190 3.595896 -0.507833
H -2.682565 2.036516 0.266668
H -0.895587 2.271439 -0.839404
H 0.022312 3.061252 -0.095008
7
Debug optimization step
C -2.033717 3.023266 0.132983
C -1.372207 3.030810 0.054119
O -0.761247 3.773614 0.988495
H -2.837188 3.595888 -0.507844
H -2.682563 2.036518 0.266673
H -0.895592 2.271447 -0.839409
H 0.022314 3.061257 -0.095017
7
Debug optimization step
C -2.033716 3.023256 0.132993
C -1.372211 3.030828 0.054108
O -0.761245 3.773612 0.988498
H -2.837187 3.595883 -0.507850
H -2.682562 2.036519 0.266676
H -0.895595 2.271451 -0.839411
H 0.022317 3.061250 -0.095014
7
Debug optimization step
C -2.033720 3.023281 0.132991
C -1.372236 3.030829 0.054152
O -0.761224 3.773591 0.988532
H -2.837177 3.595832 -0.507918
H -2.682550 2.036530 0.266711
H -0.895627 2.271499 -0.839439
H 0.022335 3.061237 -0.095029
7
Debug optimization step
C -2.033718 3.023259 0.133014
C -1.372244 3.030870 0.054125
O -0.761220 3.773588 0.988538
H -2.837175 3.595823 -0.507930
H -2.682548 2.036532 0.266717
H -0.895632 2.271507 -0.839444
H 0.022339 3.061221 -0.095020
7
Debug optimization step
C -2.033718 3.023264 0.133010
C -1.372244 3.030863 0.054132
O -0.761220 3.773587 0.988539
H -2.837175 3.595822 -0.507931
H -2.682548 2.036532 0.266718
H -0.895633 2.271509 -0.839445
H 0.022339 3.061223 -0.095022
7
Debug optimization step
C -2.033721 3.023286 0.132995
C -1.372246 3.030837 0.054162
O -0.761216 3.773584 0.988545
H -2.837173 3.595812 -0.507944
H -2.682546 2.036534 0.266724
H -0.895639 2.271517 -0.839450
H 0.022341 3.061229 -0.095032
7
Debug optimization step
C -2.033720 3.023282 0.132999
C -1.372247 3.030845 0.054157
O -0.761215 3.773583 0.988546
H -2.837173 3.595811 -0.507946
H -2.682546 2.036535 0.266725
H -0.895640 2.271519 -0.839451
H 0.022342 3.061226 -0.095031
7
Debug optimization step
C -2.033719 3.023267 0.133016
C -1.372256 3.030875 0.054141
O -0.761211 3.773579 0.988553
H -2.837171 3.595800 -0.507960
H -2.682543 2.036537 0.266733
H -0.895646 2.271529 -0.839457
H 0.022346 3.061214 -0.095026
7
Debug optimization step
C -2.033719 3.023269 0.133014
C -1.372256 3.030872 0.054144
O -0.761210 3.773578 0.988554
H -2.837170 3.595799 -0.507962
H -2.682543 2.036537 0.266733
H -0.895647 2.271530 -0.839457
H 0.022347 3.061215 -0.095027
7
Debug optimization step
C -2.033721 3.023281 0.133006
C -1.372256 3.030858 0.054160
O -0.761208 3.773576 0.988557
H -2.837169 3.595794 -0.507968
H -2.682542 2.036538 0.266737
H -0.895650 2.271535 -0.839460
H 0.022348 3.061218 -0.095032
7
Debug optimization step
C -2.033721 3.023276 0.133019
C -1.372268 3.030882 0.054158
O -0.761200 3.773568 0.988570
H -2.837165 3.595774 -0.507995
H -2.682538 2.036543 0.266750
H -0.895662 2.271553 -0.839471
H 0.022355 3.061205 -0.095031
7
Debug optimization step
C -2.033723 3.023298 0.133004
C -1.372269 3.030856 0.054188
O -0.761196 3.773564 0.988576
H -2.837163 3.595764 -0.508007
H -2.682536 2.036545 0.266756
H -0.895668 2.271562 -0.839476
H 0.022357 3.061211 -0.095041
7
Debug optimization step
C -2.033723 3.023295 0.133007
C -1.372270 3.030861 0.054185
O -0.761196 3.773564 0.988577
H -2.837163 3.595763 -0.508009
H -2.682535 2.036545 0.266757
H -0.895669 2.271563 -0.839476
H 0.022357 3.061209 -0.095040
7
Debug optimization step
C -2.033722 3.023283 0.133020
C -1.372275 3.030884 0.054171
O -0.761193 3.773561 0.988581
H -2.837162 3.595757 -0.508018
H -2.682534 2.036546 0.266762
H -0.895673 2.271569 -0.839480
H 0.022360 3.061200 -0.095036
7
Debug optimization step
C -2.033724 3.023302 0.133008
C -1.372278 3.030864 0.054198
O -0.761188 3.773556 0.988589
H -2.837160 3.595745 -0.508033
H -2.682531 2.036549 0.266770
H -0.895680 2.271580 -0.839487
H 0.022363 3.061203 -0.095045
7
Debug optimization step
C -2.033724 3.023300 0.133010
C -1.372279 3.030868 0.054196
O -0.761188 3.773556 0.988590
H -2.837159 3.595744 -0.508034
H -2.682531 2.036549 0.266770
H -0.895681 2.271581 -0.839487
H 0.022363 3.061202 -0.095044
7
Debug optimization step
C -2.536630 2.876592 0.010298
C -1.223282 2.797910 -0.091664
O -0.468872 3.824478 0.321901
H -3.011181 3.749205 0.419838
H -3.165650 2.067469 -0.310679
H -0.738631 1.918455 -0.500919
H 0.584048 3.558691 0.151224
7
Debug optimization step
C -2.522920 2.880254 0.011292
C -1.221109 2.799421 -0.091277
O -0.548961 3.842068 0.334403
H -3.011233 3.749603 0.419293
H -3.165562 2.067008 -0.310163
H -0.738615 1.918513 -0.501481
H 0.648201 3.535933 0.137933
7
Debug optimization step
C -2.252515 2.945064 0.027579
C -1.190521 2.818081 -0.086795
O -0.698521 3.846682 0.358194
H -3.010494 3.757015 0.407236
H -3.159737 2.062130 -0.298218
H -0.736501 1.920666 -0.512694
H 0.488092 3.443162 0.104697
7
Debug optimization step
C -1.991970 2.984472 0.050179
C -1.141407 2.812784 -0.100675
O -0.862659 3.923317 0.430866
H -2.985195 3.760944 0.371377
H -3.105658 2.089601 -0.265229
H -0.725271 1.926015 -0.535216
H 0.251961 3.295667 0.048697
7
Debug optimization step
C -1.981812 2.969850 0.055234
C -1.157906 2.821647 -0.097894
O -0.874926 3.949388 0.455263
H -2.965476 3.756454 0.350341
H -3.074548 2.103246 -0.251022
H -0.716142 1.927131 -0.547639
H 0.210610 3.265085 0.035718
7
Debug optimization step
C -1.951583 2.921698 0.081653
C -1.276283 2.858133 -0.071170
O -0.910656 4.032204 0.554758
H -2.870718 3.731300 0.241940
H -2.926586 2.158409 -0.180719
H -0.677448 1.942534 -0.610601
H 0.053075 3.148521 -0.015861
7
Debug optimization step
C -1.985918 2.907598 0.073254
C -1.329548 2.838017 -0.064655
O -0.892613 4.059788 0.574617
H -2.862623 3.728120 0.228341
H -2.913438 2.158672 -0.172726
H -0.678559 1.948965 -0.618119
H 0.102500 3.151639 -0.020712
7
Debug optimization step
C -2.015248 2.886829 -0.008186
C -1.318344 2.932508 -0.061514
O -0.887234 3.989132 0.705509
H -2.868602 3.759615 0.091783
H -2.901583 2.065483 -0.063765
H -0.688620 2.009503 -0.602229
H 0.119433 3.149730 -0.061598
7
Debug optimization step
C -2.012631 2.890309 -0.008049
C -1.311594 2.937055 -0.055353
O -0.888680 3.983150 0.704968
H -2.865347 3.758225 0.086674
H -2.896906 2.065791 -0.060857
H -0.688624 2.011642 -0.604268
H 0.103583 3.146628 -0.063115
7
Debug optimization step
C -2.028288 2.893016 0.008651
C -1.345350 2.952740 -0.028975
O -0.883967 3.968285 0.762378
H -2.832582 3.753019 -0.004988
H -2.825420 2.064874 -0.011184
H -0.702956 2.049227 -0.637049
H 0.058364 3.111639 -0.088833
7
Debug optimization step
C -2.028020 2.892510 0.010186
C -1.345482 2.953791 -0.031041
O -0.884029 3.968081 0.762325
H -2.832563 3.753016 -0.005143
H -2.825365 2.064819 -0.011102
H -0.702997 2.049269 -0.637097
H 0.058257 3.111314 -0.088128
7
Debug optimization step
C -2.028023 2.892974 0.009794
C -1.345359 2.953238 -0.030359
O -0.884055 3.967985 0.762306
H -2.832555 3.753014 -0.005212
H -2.825339 2.064794 -0.011065
H -0.703017 2.049295 -0.637132
H 0.058150 3.111500 -0.088332
7
Debug optimization step
C -2.023535 2.898566 0.013795
C -1.343106 2.955224 -0.028797
O -0.886101 3.960831 0.760729
H -2.831920 3.752877 -0.010557
H -2.823394 2.062878 -0.008214
H -0.704518 2.051042 -0.639340
H 0.052374 3.111382 -0.087616
7
Debug optimization step
C -2.007477 2.924229 0.034152
C -1.350326 2.957483 -0.024172
O -0.891179 3.931913 0.760940
H -2.828381 3.752185 -0.041223
H -2.810843 2.053761 0.007880
H -0.713113 2.060696 -0.652092
H 0.041119 3.112533 -0.085485
7
Debug optimization step
C -2.022062 2.923343 0.039222
C -1.360534 2.944418 -0.030111
O -0.876919 3.940026 0.781360
H -2.827990 3.752418 -0.060992
H -2.801049 2.051903 0.017520
H -0.719319 2.066844 -0.660142
H 0.047674 3.113847 -0.086856
7
Debug optimization step
C -2.019052 2.930452 0.047590
C -1.349790 2.945620 -0.028514
O -0.877073 3.930023 0.782473
H -2.828672 3.752608 -0.074265
H -2.796931 2.049131 0.023904
H -0.723563 2.070858 -0.665772
H 0.034882 3.114107 -0.085416
7
Debug optimization step
C -2.022444 2.943617 0.069225
C -1.381699 2.935090 -0.028151
O -0.865691 3.917086 0.802555
H -2.829494 3.751100 -0.117947
H -2.781183 2.042974 0.044864
H -0.736833 2.083066 -0.684954
H 0.057144 3.119867 -0.085593
7
Debug optimization step
C -2.023555 2.957398 0.089814
C -1.384524 2.937383 -0.021304
O -0.851039 3.899146 0.827603
H -2.831957 3.741729 -0.173741
H -2.765406 2.037228 0.072955
H -0.754832 2.100721 -0.709458
H 0.051115 3.119196 -0.085868
7
Debug optimization step
C -2.031948 2.987970 0.135689
C -1.383796 2.988212 0.026329
O -0.792889 3.828001 0.929216
H -2.845559 3.687965 -0.387491
H -2.710918 2.021430 0.188031
H -0.831185 2.179381 -0.797196
H 0.036096 3.099842 -0.094578
7
Debug optimization step
C -2.031448 2.990669 0.134061
C -1.371457 2.989960 0.026731
O -0.793068 3.825321 0.929520
H -2.844607 3.685029 -0.389835
H -2.710752 2.020928 0.190336
H -0.833630 2.182758 -0.797130
H 0.024763 3.098135 -0.093684
7
Debug optimization step
C -2.032061 3.021152 0.118079
C -1.378199 3.012154 0.023181
O -0.779522 3.793261 0.963163
H -2.825897 3.625081 -0.443703
H -2.695038 2.023061 0.237302
H -0.878765 2.244138 -0.805468
H 0.029282 3.073952 -0.092553
7
Debug optimization step
C -2.031816 3.019903 0.120329
C -1.370671 3.013923 0.026868
O -0.779011 3.790685 0.962659
H -2.829207 3.625138 -0.448668
H -2.693809 2.024730 0.238854
H -0.879113 2.244578 -0.808499
H 0.023428 3.073844 -0.091543
7
Debug optimization step
C -2.032971 3.017223 0.123639
C -1.376755 3.015718 0.033560
O -0.775845 3.788469 0.965841
H -2.834085 3.623912 -0.458400
H -2.690878 2.028257 0.242202
H -0.879915 2.245794 -0.814790
H 0.030250 3.073426 -0.092052
7
Debug optimization step
C -2.032812 3.017287 0.124760
C -1.370615 3.016712 0.034835
O -0.775158 3.787275 0.966644
H -2.835323 3.623003 -0.461708
H -2.690369 2.028863 0.243571
H -0.880518 2.246868 -0.816540
H 0.024597 3.072793 -0.091561
7
Debug optimization step
C -2.034065 3.016694 0.129869
C -1.381942 3.020691 0.044575
O -0.768081 3.783689 0.977223
H -2.840254 3.615347 -0.481835
H -2.685834 2.033651 0.252320
H -0.884278 2.253508 -0.828266
H 0.034256 3.069219 -0.093886
7
Debug optimization step
C -2.033912 3.016905 0.129977
C -1.379756 3.020975 0.044648
O -0.768139 3.783336 0.977134
H -2.840278 3.615093 -0.482238
H -2.685871 2.033612 0.252548
H -0.884456 2.253801 -0.828396
H 0.032213 3.069079 -0.093673
7
Debug optimization step
C -2.033266 3.017911 0.130485
C -1.370595 3.022297 0.045069
O -0.768258 3.781719 0.976974
H -2.840311 3.613715 -0.484325
H -2.685966 2.033489 0.253732
H -0.885367 2.255298 -0.829127
H 0.023563 3.068369 -0.092807
7
Debug optimization step
C -2.033390 3.019524 0.130984
C -1.375973 3.024340 0.047541
O -0.766222 3.779939 0.980552
H -2.839263 3.608908 -0.490342
H -2.685032 2.034224 0.257196
H -0.887851 2.259358 -0.832001
H 0.027531 3.066506 -0.093929
7
Debug optimization step
C -2.033224 3.020146 0.131361
C -1.371318 3.025296 0.048040
O -0.765885 3.778852 0.981041
H -2.839161 3.607456 -0.492428
H -2.684884 2.034360 0.258334
H -0.888780 2.260828 -0.832796
H 0.023053 3.065863 -0.093551
7
Debug optimization step
C -2.034098 3.022563 0.132432
C -1.380379 3.029557 0.053462
O -0.761401 3.775140 0.988316
H -2.837227 3.597561 -0.505290
H -2.682668 2.036381 0.265392
H -0.894377 2.269592 -0.838592
H 0.029950 3.062006 -0.095720
7
Debug optimization step
C -2.033926 3.022778 0.132598
C -1.376888 3.030001 0.053628
O -0.761445 3.774606 0.988219
H -2.837263 3.597122 -0.506014
H -2.682683 2.036381 0.265753
H -0.894725 2.270125 -0.838793
H 0.026731 3.061786 -0.095392
7
Debug optimization step
C -2.033710 3.023231 0.132971
C -1.372147 3.030782 0.054050
O -0.761291 3.773656 0.988425
H -2.837210 3.595994 -0.507704
H -2.682586 2.036494 0.266602
H -0.895527 2.271349 -0.839351
H 0.022272 3.061294 -0.094993
7
Debug optimization step
C -2.033712 3.023230 0.133001
C -1.372196 3.030841 0.054069
O -0.761259 3.773626 0.988476
H -2.837194 3.595916 -0.507806
H -2.682569 2.036511 0.266654
H -0.895575 2.271421 -0.839393
H 0.022305 3.061255 -0.095001
7
Debug optimization step
C -2.033717 3.023269 0.132971
C -1.372194 3.030790 0.054119
O -0.761256 3.773622 0.988482
H -2.837192 3.595908 -0.507817
H -2.682567 2.036513 0.266659
H -0.895580 2.271428 -0.839398
H 0.022306 3.061269 -0.095017
7
Debug optimization step
C -2.033716 3.023262 0.132978
C -1.372196 3.030801 0.054110
O -0.761255 3.773622 0.988483
H -2.837192 3.595907 -0.507819
H -2.682567 2.036514 0.266661
H -0.895581 2.271430 -0.839398
H 0.022307 3.061265 -0.095014
7
Debug optimization step
C -2.033714 3.023241 0.133000
C -1.372205 3.030840 0.054085
O -0.761251 3.773618 0.988489
H -2.837190 3.595898 -0.507831
H -2.682565 2.036516 0.266667
H -0.895586 2.271438 -0.839403
H 0.022312 3.061250 -0.095006
7
Debug optimization step
C -2.033714 3.023245 0.132997
C -1.372205 3.030834 0.054091
O -0.761251 3.773617 0.988490
H -2.837190 3.595896 -0.507833
H -2.682565 2.036516 0.266668
H -0.895587 2.271439 -0.839404
H 0.022312 3.061252 -0.095008
7
Debug optimization step
C -2.033717 3.023266 0.132983
C -1.372207 3.030810 0.054119
O -0.761247 3.773614 0.988495
H -2.837188 3.595888 -0.507844
H -2.682563 2.036518 0.266673
H -0.895592 2.271447 -0.839409
H 0.022314 3.061257 -0.095017
7
Debug optimization step
C -2.033716 3.023256 0.132993
C -1.372211 3.030828 0.054108
O -0.761245 3.773612 0.988498
H -2.837187 3.595883 -0.507850
H -2.682562 2.036519 0.266676
H -0.895595 2.271451 -0.839411
H 0.022317 3.061250 -0.095014
7
Debug optimization step
C -2.033720 3.023281 0.132991
C -1.372236 3.030829 0.054152
O -0.761224 3.773591 0.988532
H -2.837177 3.595832 -0.507918
H -2.682550 2.036530 0.266711
H -0.895627 2.271499 -0.839439
H 0.022335 3.061237 -0.095029
7
Debug optimization step
C -2.033718 3.023259 0.133014
C -1.372244 3.030870 0.054125
O -0.761220 3.773588 0.988538
H -2.837175 3.595823 -0.507930
H -2.682548 2.036532 0.266717
H -0.895632 2.271507 -0.839444
H 0.022339 3.061221 -0.095020
7
Debug optimization step
C -2.033718 3.023264 0.133010
C -1.372244 3.030863 0.054132
O -0.761220 3.773587 0.988539
H -2.837175 3.595822 -0.507931
H -2.682548 2.036532 0.266718
H -0.895633 2.271509 -0.839445
H 0.022339 3.061223 -0.095022
7
Debug optimization step
C -2.033721 3.023286 0.132995
C -1.372246 3.030837 0.054162
O -0.761216 3.773584 0.988545
H -2.837173 3.595812 -0.507944
H -2.682546 2.036534 0.266724
H -0.895639 2.271517 -0.839450
H 0.022341 3.061229 -0.095032
7
Debug optimization step
C -2.033720 3.023282 0.132999
C -1.372247 3.030845 0.054157
O -0.761215 3.773583 0.988546
H -2.837173 3.595811 -0.507946
H -2.682546 2.036535 0.266725
H -0.895640 2.271519 -0.839451
H 0.022342 3.061226 -0.095031
7
Debug optimization step
C -2.033719 3.023267 0.133016
C -1.372256 3.030875 0.054141
O -0.761211 3.773579 0.988553
H -2.837171 3.595800 -0.507960
H -2.682543 2.036537 0.266733
H -0.895646 2.271529 -0.839457
H 0.022346 3.061214 -0.095026
7
Debug optimization step
C -2.033719 3.023269 0.133014
C -1.372256 3.030872 0.054144
O -0.761210 3.773578 0.988554
H -2.837170 3.595799 -0.507962
H -2.682543 2.036537 0.266733
H -0.895647 2.271530 -0.839457
H 0.022347 3.061215 -0.095027
7
Debug optimization step
C -2.033721 3.023281 0.133006
C -1.372256 3.030858 0.054160
O -0.761208 3.773576 0.988557
H -2.837169 3.595794 -0.507968
H -2.682542 2.036538 0.266737
H -0.895650 2.271535 -0.839460
H 0.022348 3.061218 -0.095032
7
Debug optimization step
C -2.033721 3.023276 0.133019
C -1.372268 3.030882 0.054158
O -0.761200 3.773568 0.988570
H -2.837165 3.595774 -0.507995
H -2.682538 2.036543 0.266750
H -0.895662 2.271553 -0.839471
H 0.022355 3.061205 -0.095031
7
Debug optimization step
C -2.033723 3.023298 0.133004
C -1.372269 3.030856 0.054188
O -0.761196 3.773564 0.988576
H -2.837163 3.595764 -0.508007
H -2.682536 2.036545 0.266756
H -0.895668 2.271562 -0.839476
H 0.022357 3.061211 -0.095041
7
Debug optimization step
C -2.033723 3.023295 0.133007
C -1.372270 3.030861 0.054185
O -0.761196 3.773564 0.988577
H -2.837163 3.595763 -0.508009
H -2.682535 2.036545 0.266757
H -0.895669 2.271563 -0.839476
H 0.022357 3.061209 -0.095040
7
Debug optimization step
C -2.033722 3.023283 0.133020
C -1.372275 3.030884 0.054171
O -0.761193 3.773561 0.988581
H -2.837162 3.595757 -0.508018
H -2.682534 2.036546 0.266762
H -0.895673 2.271569 -0.839480
H 0.022360 3.061200 -0.095036
7
Debug optimization step
C -2.033724 3.023302 0.133008
C -1.372278 3.030864 0.054198
O -0.761188 3.773556 0.988589
H -2.837160 3.595745 -0.508033
H -2.682531 2.036549 0.266770
H -0.895680 2.271580 -0.839487
H 0.022363 3.061203 -0.095045
7
Debug optimization step
C -2.033724 3.023300 0.133010
C -1.372279 3.030868 0.054196
O -0.761188 3.773556 0.988590
H -2.837159 3.595744 -0.508034
H -2.682531 2.036549 0.266770
H -0.895681 2.271581 -0.839487
H 0.022363 3.061202 -0.095044
7
Debug optimization step
C -2.536630 2.876592 0.010298
C -1.223282 2.797910 -0.091664
O -0.468872 3.824478 0.321901
H -3.011181 3.749205 0.419838
H -3.165650 2.067469 -0.310679
H -0.738631 1.918455 -0.500919
H 0.584048 3.558691 0.151224
7
Debug optimization step
C -2.522920 2.880254 0.011292
C -1.221109 2.799421 -0.091277
O -0.548961 3.842068 0.334403
H -3.011233 3.749603 0.419293
H -3.165562 2.067008 -0.310163
H -0.738615 1.918513 -0.501481
H 0.648201 3.535933 0.137933
7
Debug optimization step
C -2.252515 2.945064 0.027579
C -1.190521 2.818081 -0.086795
O -0.698521 3.846682 0.358194
H -3.010494 3.757015 0.407236
H -3.159737 2.062130 -0.298218
H -0.736501 1.920666 -0.512694
H 0.488092 3.443162 0.104697
7
Debug optimization step
C -1.991970 2.984472 0.050179
C -1.141407 2.812784 -0.100675
O -0.862659 3.923317 0.430866
H -2.985195 3.760944 0.371377
H -3.105658 2.089601 -0.265229
H -0.725271 1.926015 -0.535216
H 0.251961 3.295667 0.048697
7
Debug optimization step
C -1.981812 2.969850 0.055234
C -1.157906 2.821647 -0.097894
O -0.874926 3.949388 0.455263
H -2.965476 3.756454 0.350341
H -3.074548 2.103246 -0.251022
H -0.716142 1.927131 -0.547639
H 0.210610 3.265085 0.035718
7
Debug optimization step
C -1.951583 2.921698 0.081653
C -1.276283 2.858133 -0.071170
O -0.910656 4.032204 0.554758
H -2.870718 3.731300 0.241940
H -2.926586 2.158409 -0.180719
H -0.677448 1.942534 -0.610601
H 0.053075 3.148521 -0.015861
7
Debug optimization step
C -1.985918 2.907598 0.073254
C -1.329548 2.838017 -0.064655
O -0.892613 4.059788 0.574617
H -2.862623 3.728120 0.228341
H -2.913438 2.158672 -0.172726
H -0.678559 1.948965 -0.618119
H 0.102500 3.151639 -0.020712
7
Debug optimization step
C -2.015248 2.886829 -0.008186
C -1.318344 2.932508 -0.061514
O -0.887234 3.989132 0.705509
H -2.868602 3.759615 0.091783
H -2.901583 2.065483 -0.063765
H -0.688620 2.009503 -0.602229
H 0.119433 3.149730 -0.061598
7
Debug optimization step
C -2.012631 2.890309 -0.008049
C -1.311594 2.937055 -0.055353
O -0.888680 3.983150 0.704968
H -2.865347 3.758225 0.086674
H -2.896906 2.065791 -0.060857
H -0.688624 2.011642 -0.604268
H 0.103583 3.146628 -0.063115
7
Debug optimization step
C -2.028288 2.893016 0.008651
C -1.345350 2.952740 -0.028975
O -0.883967 3.968285 0.762378
H -2.832582 3.753019 -0.004988
H -2.825420 2.064874 -0.011184
H -0.702956 2.049227 -0.637049
H 0.058364 3.111639 -0.088833
7
Debug optimization step
C -2.028020 2.892510 0.010186
C -1.345482 2.953791 -0.031041
O -0.884029 3.968081 0.762325
H -2.832563 3.753016 -0.005143
H -2.825365 2.064819 -0.011102
H -0.702997 2.049269 -0.637097
H 0.058257 3.111314 -0.088128
7
Debug optimization step
C -2.028023 2.892974 0.009794
C -1.345359 2.953238 -0.030359
O -0.884055 3.967985 0.762306
H -2.832555 3.753014 -0.005212
H -2.825339 2.064794 -0.011065
H -0.703017 2.049295 -0.637132
H 0.058150 3.111500 -0.088332
7
Debug optimization step
C -2.023535 2.898566 0.013795
C -1.343106 2.955224 -0.028797
O -0.886101 3.960831 0.760729
H -2.831920 3.752877 -0.010557
H -2.823394 2.062878 -0.008214
H -0.704518 2.051042 -0.639340
H 0.052374 3.111382 -0.087616
7
Debug optimization step
C -2.007477 2.924229 0.034152
C -1.350326 2.957483 -0.024172
O -0.891179 3.931913 0.760940
H -2.828381 3.752185 -0.041223
H -2.810843 2.053761 0.007880
H -0.713113 2.060696 -0.652092
H 0.041119 3.112533 -0.085485
7
Debug optimization step
C -2.022062 2.923343 0.039222
C -1.360534 2.944418 -0.030111
O -0.876919 3.940026 0.781360
H -2.827990 3.752418 -0.060992
H -2.801049 2.051903 0.017520
H -0.719319 2.066844 -0.660142
H 0.047674 3.113847 -0.086856
7
Debug optimization step
C -2.019052 2.930452 0.047590
C -1.349790 2.945620 -0.028514
O -0.877073 3.930023 0.782473
H -2.828672 3.752608 -0.074265
H -2.796931 2.049131 0.023904
H -0.723563 2.070858 -0.665772
H 0.034882 3.114107 -0.085416
7
Debug optimization step
C -2.022444 2.943617 0.069225
C -1.381699 2.935090 -0.028151
O -0.865691 3.917086 0.802555
H -2.829494 3.751100 -0.117947
H -2.781183 2.042974 0.044864
H -0.736833 2.083066 -0.684954
H 0.057144 3.119867 -0.085593
7
Debug optimization step
C -2.023555 2.957398 0.089814
C -1.384524 2.937383 -0.021304
O -0.851039 3.899146 0.827603
H -2.831957 3.741729 -0.173741
H -2.765406 2.037228 0.072955
H -0.754832 2.100721 -0.709458
H 0.051115 3.119196 -0.085868
7
Debug optimization step
C -2.031948 2.987970 0.135689
C -1.383796 2.988212 0.026329
O -0.792889 3.828001 0.929216
H -2.845559 3.687965 -0.387491
H -2.710918 2.021430 0.188031
H -0.831185 2.179381 -0.797196
H 0.036096 3.099842 -0.094578
7
Debug optimization step
C -2.031448 2.990669 0.134061
C -1.371457 2.989960 0.026731
O -0.793068 3.825321 0.929520
H -2.844607 3.685029 -0.389835
H -2.710752 2.020928 0.190336
H -0.833630 2.182758 -0.797130
H 0.024763 3.098135 -0.093684
7
Debug optimization step
C -2.032061 3.021152 0.118079
C -1.378199 3.012154 0.023181
O -0.779522 3.793261 0.963163
H -2.825897 3.625081 -0.443703
H -2.695038 2.023061 0.237302
H -0.878765 2.244138 -0.805468
H 0.029282 3.073952 -0.092553
7
Debug optimization step
C -2.031816 3.019903 0.120329
C -1.370671 3.013923 0.026868
O -0.779011 3.790685 0.962659
H -2.829207 3.625138 -0.448668
H -2.693809 2.024730 0.238854
H -0.879113 2.244578 -0.808499
H 0.023428 3.073844 -0.091543
7
Debug optimization step
C -2.032971 3.017223 0.123639
C -1.376755 3.015718 0.033560
O -0.775845 3.788469 0.965841
H -2.834085 3.623912 -0.458400
H -2.690878 2.028257 0.242202
H -0.879915 2.245794 -0.814790
H 0.030250 3.073426 -0.092052
7
Debug optimization step
C -2.032812 3.017287 0.124760
C -1.370615 3.016712 0.034835
O -0.775158 3.787275 0.966644
H -2.835323 3.623003 -0.461708
H -2.690369 2.028863 0.243571
H -0.880518 2.246868 -0.816540
H 0.024597 3.072793 -0.091561
7
Debug optimization step
C -2.034065 3.016694 0.129869
C -1.381942 3.020691 0.044575
O -0.768081 3.783689 0.977223
H -2.840254 3.615347 -0.481835
H -2.685834 2.033651 0.252320
H -0.884278 2.253508 -0.828266
H 0.034256 3.069219 -0.093886
7
Debug optimization step
C -2.033912 3.016905 0.129977
C -1.379756 3.020975 0.044648
O -0.768139 3.783336 0.977134
H -2.840278 3.615093 -0.482238
H -2.685871 2.033612 0.252548
H -0.884456 2.253801 -0.828396
H 0.032213 3.069079 -0.093673
7
Debug optimization step
C -2.033266 3.017911 0.130485
C -1.370595 3.022297 0.045069
O -0.768258 3.781719 0.976974
H -2.840311 3.613715 -0.484325
H -2.685966 2.033489 0.253732
H -0.885367 2.255298 -0.829127
H 0.023563 3.068369 -0.092807
7
Debug optimization step
C -2.033390 3.019524 0.130984
C -1.375973 3.024340 0.047541
O -0.766222 3.779939 0.980552
H -2.839263 3.608908 -0.490342
H -2.685032 2.034224 0.257196
H -0.887851 2.259358 -0.832001
H 0.027531 3.066506 -0.093929
7
Debug optimization step
C -2.033224 3.020146 0.131361
C -1.371318 3.025296 0.048040
O -0.765885 3.778852 0.981041
H -2.839161 3.607456 -0.492428
H -2.684884 2.034360 0.258334
H -0.888780 2.260828 -0.832796
H 0.023053 3.065863 -0.093551
7
Debug optimization step
C -2.034098 3.022563 0.132432
C -1.380379 3.029557 0.053462
O -0.761401 3.775140 0.988316
H -2.837227 3.597561 -0.505290
H -2.682668 2.036381 0.265392
H -0.894377 2.269592 -0.838592
H 0.029950 3.062006 -0.095720
7
Debug optimization step
C -2.033926 3.022778 0.132598
C -1.376888 3.030001 0.053628
O -0.761445 3.774606 0.988219
H -2.837263 3.597122 -0.506014
H -2.682683 2.036381 0.265753
H -0.894725 2.270125 -0.838793
H 0.026731 3.061786 -0.095392
7
Debug optimization step
C -2.033710 3.023231 0.132971
C -1.372147 3.030782 0.054050
O -0.761291 3.773656 0.988425
H -2.837210 3.595994 -0.507704
H -2.682586 2.036494 0.266602
H -0.895527 2.271349 -0.839351
H 0.022272 3.061294 -0.094993
7
Debug optimization step
C -2.033712 3.023230 0.133001
C -1.372196 3.030841 0.054069
O -0.761259 3.773626 0.988476
H -2.837194 3.595916 -0.507806
H -2.682569 2.036511 0.266654
H -0.895575 2.271421 -0.839393
H 0.022305 3.061255 -0.095001
7
Debug optimization step
C -2.033717 3.023269 0.132971
C -1.372194 3.030790 0.054119
O -0.761256 3.773622 0.988482
H -2.837192 3.595908 -0.507817
H -2.682567 2.036513 0.266659
H -0.895580 2.271428 -0.839398
H 0.022306 3.061269 -0.095017
7
Debug optimization step
C -2.033716 3.023262 0.132978
C -1.372196 3.030801 0.054110
O -0.761255 3.773622 0.988483
H -2.837192 3.595907 -0.507819
H -2.682567 2.036514 0.266661
H -0.895581 2.271430 -0.839398
H 0.022307 3.061265 -0.095014
7
Debug optimization step
C -2.033714 3.023241 0.133000
C -1.372205 3.030840 0.054085
O -0.761251 3.773618 0.988489
H -2.837190 3.595898 -0.507831
H -2.682565 2.036516 0.266667
H -0.895586 2.271438 -0.839403
H 0.022312 3.061250 -0.095006
7
Debug optimization step
C -2.033714 3.023245 0.132997
C -1.372205 3.030834 0.054091
O -0.761251 3.773617 0.988490
H -2.837190 3.595896 -0.507833
H -2.682565 2.036516 0.266668
H -0.895587 2.271439 -0.839404
H 0.022312 3.061252 -0.095008
7
Debug optimization step
C -2.033717 3.023266 0.132983
C -1.372207 3.030810 0.054119
O -0.761247 3.773614 0.988495
H -2.837188 3.595888 -0.507844
H -2.682563 2.036518 0.266673
H -0.895592 2.271447 -0.839409
H 0.022314 3.061257 -0.095017
7
Debug optimization step
C -2.033716 3.023256 0.132993
C -1.372211 3.030828 0.054108
O -0.761245 3.773612 0.988498
H -2.837187 3.595883 -0.507850
H -2.682562 2.036519 0.266676
H -0.895595 2.271451 -0.839411
H 0.022317 3.061250 -0.095014
7
Debug optimization step
C -2.033720 3.023281 0.132991
C -1.372236 3.030829 0.054152
O -0.761224 3.773591 0.988532
H -2.837177 3.595832 -0.507918
H -2.682550 2.036530 0.266711
H -0.895627 2.271499 -0.839439
H 0.022335 3.061237 -0.095029
7
Debug optimization step
C -2.033718 3.023259 0.133014
C -1.372244 3.030870 0.054125
O -0.761220 3.773588 0.988538
H -2.837175 3.595823 -0.507930
H -2.682548 2.036532 0.266717
H -0.895632 2.271507 -0.839444
H 0.022339 3.061221 -0.095020
7
Debug optimization step
C -2.033718 3.023264 0.133010
C -1.372244 3.030863 0.054132
O -0.761220 3.773587 0.988539
H -2.837175 3.595822 -0.507931
H -2.682548 2.036532 0.266718
H -0.895633 2.271509 -0.839445
H 0.022339 3.061223 -0.095022
7
Debug optimization step
C -2.033721 3.023286 0.132995
C -1.372246 3.030837 0.054162
O -0.761216 3.773584 0.988545
H -2.837173 3.595812 -0.507944
H -2.682546 2.036534 0.266724
H -0.895639 2.271517 -0.839450
H 0.022341 3.061229 -0.095032
7
Debug optimization step
C -2.033720 3.023282 0.132999
C -1.372247 3.030845 0.054157
O -0.761215 3.773583 0.988546
H -2.837173 3.595811 -0.507946
H -2.682546 2.036535 0.266725
H -0.895640 2.271519 -0.839451
H 0.022342 3.061226 -0.095031
7
Debug optimization step
C -2.033719 3.023267 0.133016
C -1.372256 3.030875 0.054141
O -0.761211 3.773579 0.988553
H -2.837171 3.595800 -0.507960
H -2.682543 2.036537 0.266733
H -0.895646 2.271529 -0.839457
H 0.022346 3.061214 -0.095026
7
Debug optimization step
C -2.033719 3.023269 0.133014
C -1.372256 3.030872 0.054144
O -0.761210 3.773578 0.988554
H -2.837170 3.595799 -0.507962
H -2.682543 2.036537 0.266733
H -0.895647 2.271530 -0.839457
H 0.022347 3.061215 -0.095027
7
Debug optimization step
C -2.033721 3.023281 0.133006
C -1.372256 3.030858 0.054160
O -0.761208 3.773576 0.988557
H -2.837169 3.595794 -0.507968
H -2.682542 2.036538 0.266737
H -0.895650 2.271535 -0.839460
H 0.022348 3.061218 -0.095032
7
Debug optimization step
C -2.033721 3.023276 0.133019
C -1.372268 3.030882 0.054158
O -0.761200 3.773568 0.988570
H -2.837165 3.595774 -0.507995
H -2.682538 2.036543 0.266750
H -0.895662 2.271553 -0.839471
H 0.022355 3.061205 -0.095031
7
Debug optimization step
C -2.033723 3.023298 0.133004
C -1.372269 3.030856 0.054188
O -0.761196 3.773564 0.988576
H -2.837163 3.595764 -0.508007
H -2.682536 2.036545 0.266756
H -0.895668 2.271562 -0.839476
H 0.022357 3.061211 -0.095041
7
Debug optimization step
C -2.033723 3.023295 0.133007
C -1.372270 3.030861 0.054185
O -0.761196 3.773564 0.988577
H -2.837163 3.595763 -0.508009
H -2.682535 2.036545 0.266757
H -0.895669 2.271563 -0.839476
H 0.022357 3.061209 -0.095040
7
Debug optimization step
C -2.033722 3.023283 0.133020
C -1.372275 3.030884 0.054171
O -0.761193 3.773561 0.988581
H -2.837162 3.595757 -0.508018
H -2.682534 2.036546 0.266762
H -0.895673 2.271569 -0.839480
H 0.022360 3.061200 -0.095036
7
Debug optimization step
C -2.033724 3.023302 0.133008
C -1.372278 3.030864 0.054198
O -0.761188 3.773556 0.988589
H -2.837160 3.595745 -0.508033
H -2.682531 2.036549 0.266770
H -0.895680 2.271580 -0.839487
H 0.022363 3.061203 -0.095045
7
Debug optimization step
C -2.033724 3.023300 0.133010
C -1.372279 3.030868 0.054196
O -0.761188 3.773556 0.988590
H -2.837159 3.595744 -0.508034
H -2.682531 2.036549 0.266770
H -0.895681 2.271581 -0.839487
H 0.022363 3.061202 -0.095044
7
Debug optimization step
C -2.536630 2.876592 0.010298
C -1.223282 2.797910 -0.091664
O -0.468872 3.824478 0.321901
H -3.011181 3.749205 0.419838
H -3.165650 2.067469 -0.310679
H -0.738631 1.918455 -0.500919
H 0.584048 3.558691 0.151224
7
Debug optimization step
C -2.522920 2.880254 0.011292
C -1.221109 2.799421 -0.091277
O -0.548961 3.842068 0.334403
H -3.011233 3.749603 0.419293
H -3.165562 2.067008 -0.310163
H -0.738615 1.918513 -0.501481
H 0.648201 3.535933 0.137933
7
Debug optimization step
C -2.252515 2.945064 0.027579
C -1.190521 2.818081 -0.086795
O -0.698521 3.846682 0.358194
H -3.010494 3.757015 0.407236
H -3.159737 2.062130 -0.298218
H -0.736501 1.920666 -0.512694
H 0.488092 3.443162 0.104697
7
Debug optimization step
C -1.991970 2.984472 0.050179
C -1.141407 2.812784 -0.100675
O -0.862659 3.923317 0.430866
H -2.985195 3.760944 0.371377
H -3.105658 2.089601 -0.265229
H -0.725271 1.926015 -0.535216
H 0.251961 3.295667 0.048697
7
Debug optimization step
C -1.981812 2.969850 0.055234
C -1.157906 2.821647 -0.097894
O -0.874926 3.949388 0.455263
H -2.965476 3.756454 0.350341
H -3.074548 2.103246 -0.251022
H -0.716142 1.927131 -0.547639
H 0.210610 3.265085 0.035718
7
Debug optimization step
C -1.951583 2.921698 0.081653
C -1.276283 2.858133 -0.071170
O -0.910656 4.032204 0.554758
H -2.870718 3.731300 0.241940
H -2.926586 2.158409 -0.180719
H -0.677448 1.942534 -0.610601
H 0.053075 3.148521 -0.015861
7
Debug optimization step
C -1.985918 2.907598 0.073254
C -1.329548 2.838017 -0.064655
O -0.892613 4.059788 0.574617
H -2.862623 3.728120 0.228341
H -2.913438 2.158672 -0.172726
H -0.678559 1.948965 -0.618119
H 0.102500 3.151639 -0.020712
7
Debug optimization step
C -2.015248 2.886829 -0.008186
C -1.318344 2.932508 -0.061514
O -0.887234 3.989132 0.705509
H -2.868602 3.759615 0.091783
H -2.901583 2.065483 -0.063765
H -0.688620 2.009503 -0.602229
H 0.119433 3.149730 -0.061598
7
Debug optimization step
C -2.012631 2.890309 -0.008049
C -1.311594 2.937055 -0.055353
O -0.888680 3.983150 0.704968
H -2.865347 3.758225 0.086674
H -2.896906 2.065791 -0.060857
H -0.688624 2.011642 -0.604268
H 0.103583 3.146628 -0.063115
7
Debug optimization step
C -2.028288 2.893016 0.008651
C -1.345350 2.952740 -0.028975
O -0.883967 3.968285 0.762378
H -2.832582 3.753019 -0.004988
H -2.825420 2.064874 -0.011184
H -0.702956 2.049227 -0.637049
H 0.058364 3.111639 -0.088833
7
Debug optimization step
C -2.028020 2.892510 0.010186
C -1.345482 2.953791 -0.031041
O -0.884029 3.968081 0.762325
H -2.832563 3.753016 -0.005143
H -2.825365 2.064819 -0.011102
H -0.702997 2.049269 -0.637097
H 0.058257 3.111314 -0.088128
7
Debug optimization step
C -2.028023 2.892974 0.009794
C -1.345359 2.953238 -0.030359
O -0.884055 3.967985 0.762306
H -2.832555 3.753014 -0.005212
H -2.825339 2.064794 -0.011065
H -0.703017 2.049295 -0.637132
H 0.058150 3.111500 -0.088332
7
Debug optimization step
C -2.023535 2.898566 0.013795
C -1.343106 2.955224 -0.028797
O -0.886101 3.960831 0.760729
H -2.831920 3.752877 -0.010557
H -2.823394 2.062878 -0.008214
H -0.704518 2.051042 -0.639340
H 0.052374 3.111382 -0.087616
7
Debug optimization step
C -2.007477 2.924229 0.034152
C -1.350326 2.957483 -0.024172
O -0.891179 3.931913 0.760940
H -2.828381 3.752185 -0.041223
H -2.810843 2.053761 0.007880
H -0.713113 2.060696 -0.652092
H 0.041119 3.112533 -0.085485
7
Debug optimization step
C -2.022062 2.923343 0.039222
C -1.360534 2.944418 -0.030111
O -0.876919 3.940026 0.781360
H -2.827990 3.752418 -0.060992
H -2.801049 2.051903 0.017520
H -0.719319 2.066844 -0.660142
H 0.047674 3.113847 -0.086856
7
Debug optimization step
C -2.019052 2.930452 0.047590
C -1.349790 2.945620 -0.028514
O -0.877073 3.930023 0.782473
H -2.828672 3.752608 -0.074265
H -2.796931 2.049131 0.023904
H -0.723563 2.070858 -0.665772
H 0.034882 3.114107 -0.085416
7
Debug optimization step
C -2.022444 2.943617 0.069225
C -1.381699 2.935090 -0.028151
O -0.865691 3.917086 0.802555
H -2.829494 3.751100 -0.117947
H -2.781183 2.042974 0.044864
H -0.736833 2.083066 -0.684954
H 0.057144 3.119867 -0.085593
7
Debug optimization step
C -2.023555 2.957398 0.089814
C -1.384524 2.937383 -0.021304
O -0.851039 3.899146 0.827603
H -2.831957 3.741729 -0.173741
H -2.765406 2.037228 0.072955
H -0.754832 2.100721 -0.709458
H 0.051115 3.119196 -0.085868
7
Debug optimization step
C -2.031948 2.987970 0.135689
C -1.383796 2.988212 0.026329
O -0.792889 3.828001 0.929216
H -2.845559 3.687965 -0.387491
H -2.710918 2.021430 0.188031
H -0.831185 2.179381 -0.797196
H 0.036096 3.099842 -0.094578
7
Debug optimization step
C -2.031448 2.990669 0.134061
C -1.371457 2.989960 0.026731
O -0.793068 3.825321 0.929520
H -2.844607 3.685029 -0.389835
H -2.710752 2.020928 0.190336
H -0.833630 2.182758 -0.797130
H 0.024763 3.098135 -0.093684
7
Debug optimization step
C -2.032061 3.021152 0.118079
C -1.378199 3.012154 0.023181
O -0.779522 3.793261 0.963163
H -2.825897 3.625081 -0.443703
H -2.695038 2.023061 0.237302
H -0.878765 2.244138 -0.805468
H 0.029282 3.073952 -0.092553
7
Debug optimization step
C -2.031816 3.019903 0.120329
C -1.370671 3.013923 0.026868
O -0.779011 3.790685 0.962659
H -2.829207 3.625138 -0.448668
H -2.693809 2.024730 0.238854
H -0.879113 2.244578 -0.808499
H 0.023428 3.073844 -0.091543
7
Debug optimization step
C -2.032971 3.017223 0.123639
C -1.376755 3.015718 0.033560
O -0.775845 3.788469 0.965841
H -2.834085 3.623912 -0.458400
H -2.690878 2.028257 0.242202
H -0.879915 2.245794 -0.814790
H 0.030250 3.073426 -0.092052
7
Debug optimization step
C -2.032812 3.017287 0.124760
C -1.370615 3.016712 0.034835
O -0.775158 3.787275 0.966644
H -2.835323 3.623003 -0.461708
H -2.690369 2.028863 0.243571
H -0.880518 2.246868 -0.816540
H 0.024597 3.072793 -0.091561
7
Debug optimization step
C -2.034065 3.016694 0.129869
C -1.381942 3.020691 0.044575
O -0.768081 3.783689 0.977223
H -2.840254 3.615347 -0.481835
H -2.685834 2.033651 0.252320
H -0.884278 2.253508 -0.828266
H 0.034256 3.069219 -0.093886
7
Debug optimization step
C -2.033912 3.016905 0.129977
C -1.379756 3.020975 0.044648
O -0.768139 3.783336 0.977134
H -2.840278 3.615093 -0.482238
H -2.685871 2.033612 0.252548
H -0.884456 2.253801 -0.828396
H 0.032213 3.069079 -0.093673
7
Debug optimization step
C -2.033266 3.017911 0.130485
C -1.370595 3.022297 0.045069
O -0.768258 3.781719 0.976974
H -2.840311 3.613715 -0.484325
H -2.685966 2.033489 0.253732
H -0.885367 2.255298 -0.829127
H 0.023563 3.068369 -0.092807
7
Debug optimization step
C -2.033390 3.019524 0.130984
C -1.375973 3.024340 0.047541
O -0.766222 3.779939 0.980552
H -2.839263 3.608908 -0.490342
H -2.685032 2.034224 0.257196
H -0.887851 2.259358 -0.832001
H 0.027531 3.066506 -0.093929
7
Debug optimization step
C -2.033224 3.020146 0.131361
C -1.371318 3.025296 0.048040
O -0.765885 3.778852 0.981041
H -2.839161 3.607456 -0.492428
H -2.684884 2.034360 0.258334
H -0.888780 2.260828 -0.832796
H 0.023053 3.065863 -0.093551
7
Debug optimization step
C -2.034098 3.022563 0.132432
C -1.380379 3.029557 0.053462
O -0.761401 3.775140 0.988316
H -2.837227 3.597561 -0.505290
H -2.682668 2.036381 0.265392
H -0.894377 2.269592 -0.838592
H 0.029950 3.062006 -0.095720
7
Debug optimization step
C -2.033926 3.022778 0.132598
C -1.376888 3.030001 0.053628
O -0.761445 3.774606 0.988219
H -2.837263 3.597122 -0.506014
H -2.682683 2.036381 0.265753
H -0.894725 2.270125 -0.838793
H 0.026731 3.061786 -0.095392
7
Debug optimization step
C -2.033710 3.023231 0.132971
C -1.372147 3.030782 0.054050
O -0.761291 3.773656 0.988425
H -2.837210 3.595994 -0.507704
H -2.682586 2.036494 0.266602
H -0.895527 2.271349 -0.839351
H 0.022272 3.061294 -0.094993
7
Debug optimization step
C -2.033712 3.023230 0.133001
C -1.372196 3.030841 0.054069
O -0.761259 3.773626 0.988476
H -2.837194 3.595916 -0.507806
H -2.682569 2.036511 0.266654
H -0.895575 2.271421 -0.839393
H 0.022305 3.061255 -0.095001
7
Debug optimization step
C -2.033717 3.023269 0.132971
C -1.372194 3.030790 0.054119
O -0.761256 3.773622 0.988482
H -2.837192 3.595908 -0.507817
H -2.682567 2.036513 0.266659
H -0.895580 2.271428 -0.839398
H 0.022306 3.061269 -0.095017
7
Debug optimization step
C -2.033716 3.023262 0.132978
C -1.372196 3.030801 0.054110
O -0.761255 3.773622 0.988483
H -2.837192 3.595907 -0.507819
H -2.682567 2.036514 0.266661
H -0.895581 2.271430 -0.839398
H 0.022307 3.061265 -0.095014
7
Debug optimization step
C -2.033714 3.023241 0.133000
C -1.372205 3.030840 0.054085
O -0.761251 3.773618 0.988489
H -2.837190 3.595898 -0.507831
H -2.682565 2.036516 0.266667
H -0.895586 2.271438 -0.839403
H 0.022312 3.061250 -0.095006
7
Debug optimization step
C -2.033714 3.023245 0.132997
C -1.372205 3.030834 0.054091
O -0.761251 3.773617 0.988490
H -2.837190 3.595896 -0.507833
H -2.682565 2.036516 0.266668
H -0.895587 2.271439 -0.839404
H 0.022312 3.061252 -0.095008
7
Debug optimization step
C -2.033717 3.023266 0.132983
C -1.372207 3.030810 0.054119
O -0.761247 3.773614 0.988495
H -2.837188 3.595888 -0.507844
H -2.682563 2.036518 0.266673
H -0.895592 2.271447 -0.839409
H 0.022314 3.061257 -0.095017
7
Debug optimization step
C -2.033716 3.023256 0.132993
C -1.372211 3.030828 0.054108
O -0.761245 3.773612 0.988498
H -2.837187 3.595883 -0.507850
H -2.682562 2.036519 0.266676
H -0.895595 2.271451 -0.839411
H 0.022317 3.061250 -0.095014
7
Debug optimization step
C -2.033720 3.023281 0.132991
C -1.372236 3.030829 0.054152
O -0.761224 3.773591 0.988532
H -2.837177 3.595832 -0.507918
H -2.682550 2.036530 0.266711
H -0.895627 2.271499 -0.839439
H 0.022335 3.061237 -0.095029
7
Debug optimization step
C -2.033718 3.023259 0.133014
C -1.372244 3.030870 0.054125
O -0.761220 3.773588 0.988538
H -2.837175 3.595823 -0.507930
H -2.682548 2.036532 0.266717
H -0.895632 2.271507 -0.839444
H 0.022339 3.061221 -0.095020
7
Debug optimization step
C -2.033718 3.023264 0.133010
C -1.372244 3.030863 0.054132
O -0.761220 3.773587 0.988539
H -2.837175 3.595822 -0.507931
H -2.682548 2.036532 0.266718
H -0.895633 2.271509 -0.839445
H 0.022339 3.061223 -0.095022
7
Debug optimization step
C -2.033721 3.023286 0.132995
C -1.372246 3.030837 0.054162
O -0.761216 3.773584 0.988545
H -2.837173 3.595812 -0.507944
H -2.682546 2.036534 0.266724
H -0.895639 2.271517 -0.839450
H 0.022341 3.061229 -0.095032
7
Debug optimization step
C -2.033720 3.023282 0.132999
C -1.372247 3.030845 0.054157
O -0.761215 3.773583 0.988546
H -2.837173 3.595811 -0.507946
H -2.682546 2.036535 0.266725
H -0.895640 2.271519 -0.839451
H 0.022342 3.061226 -0.095031
7
Debug optimization step
C -2.033719 3.023267 0.133016
C -1.372256 3.030875 0.054141
O -0.761211 3.773579 0.988553
H -2.837171 3.595800 -0.507960
H -2.682543 2.036537 0.266733
H -0.895646 2.271529 -0.839457
H 0.022346 3.061214 -0.095026
7
Debug optimization step
C -2.033719 3.023269 0.133014
C -1.372256 3.030872 0.054144
O -0.761210 3.773578 0.988554
H -2.837170 3.595799 -0.507962
H -2.682543 2.036537 0.266733
H -0.895647 2.271530 -0.839457
H 0.022347 3.061215 -0.095027
7
Debug optimization step
C -2.033721 3.023281 0.133006
C -1.372256 3.030858 0.054160
O -0.761208 3.773576 0.988557
H -2.837169 3.595794 -0.507968
H -2.682542 2.036538 0.266737
H -0.895650 2.271535 -0.839460
H 0.022348 3.061218 -0.095032
7
Debug optimization step
C -2.033721 3.023276 0.133019
C -1.372268 3.030882 0.054158
O -0.761200 3.773568 0.988570
H -2.837165 3.595774 -0.507995
H -2.682538 2.036543 0.266750
H -0.895662 2.271553 -0.839471
H 0.022355 3.061205 -0.095031
7
Debug optimization step
C -2.033723 3.023298 0.133004
C -1.372269 3.030856 0.054188
O -0.761196 3.773564 0.988576
H -2.837163 3.595764 -0.508007
H -2.682536 2.036545 0.266756
H -0.895668 2.271562 -0.839476
H 0.022357 3.061211 -0.095041
7
Debug optimization step
C -2.033723 3.023295 0.133007
C -1.372270 3.030861 0.054185
O -0.761196 3.773564 0.988577
H -2.837163 3.595763 -0.508009
H -2.682535 2.036545 0.266757
H -0.895669 2.271563 -0.839476
H 0.022357 3.061209 -0.095040
7
Debug optimization step
C -2.033722 3.023283 0.133020
C -1.372275 3.030884 0.054171
O -0.761193 3.773561 0.988581
H -2.837162 3.595757 -0.508018
H -2.682534 2.036546 0.266762
H -0.895673 2.271569 -0.839480
H 0.022360 3.061200 -0.095036
7
Debug optimization step
C -2.033724 3.023302 0.133008
C -1.372278 3.030864 0.054198
O -0.761188 3.773556 0.988589
H -2.837160 3.595745 -0.508033
H -2.682531 2.036549 0.266770
H -0.895680 2.271580 -0.839487
H 0.022363 3.061203 -0.095045
7
Debug optimization step
C -2.033724 3.023300 0.133010
C -1.372279 3.030868 0.054196
O -0.761188 3.773556 0.988590
H -2.837159 3.595744 -0.508034
H -2.682531 2.036549 0.266770
H -0.895681 2.271581 -0.839487
H 0.022363 3.061202 -0.095044
7
Debug optimization step
C -2.076680 3.035964 0.314693
C -0.742173 2.904586 -0.393150
O 0.267716 3.483320 -0.101692
H -2.834193 3.381849 -0.398567
H -2.391131 2.052558 0.683730
H -0.774628 2.195506 -1.255224
H -2.009109 3.739017 1.150210
7
Debug optimization step
C -2.076666 3.035982 0.314677
C -0.742149 2.904588 -0.393150
O 0.267695 3.483300 -0.101656
H -2.834209 3.381818 -0.398568
H -2.391074 2.052579 0.683692
H -0.774688 2.195509 -1.255207
H -2.009108 3.739024 1.150212
7
Debug optimization step
C -2.076637 3.036018 0.314647
C -0.742103 2.904594 -0.393149
O 0.267660 3.483261 -0.101593
H -2.834236 3.381759 -0.398571
H -2.390964 2.052619 0.683620
H -0.774804 2.195512 -1.255173
H -2.009115 3.739038 1.150219
7
Debug optimization step
C -2.076644 3.036010 0.314655
C -0.742113 2.904593 -0.393148
O 0.267670 3.483270 -0.101610
H -2.834228 3.381773 -0.398572
H -2.390989 2.052610 0.683636
H -0.774779 2.195511 -1.255180
H -2.009117 3.739034 1.150220
7
Debug optimization step
C -2.076656 3.035995 0.314668
C -0.742133 2.904591 -0.393149
O 0.267688 3.483286 -0.101640
H -2.834214 3.381799 -0.398572
H -2.391037 2.052592 0.683669
H -0.774729 2.195510 -1.255195
H -2.009117 3.739027 1.150219
7
Debug optimization step
C -2.076653 3.035998 0.314665
C -0.742129 2.904591 -0.393149
O 0.267683 3.483283 -0.101633
H -2.834218 3.381793 -0.398572
H -2.391026 2.052596 0.683661
H -0.774740 2.195510 -1.255191
H -2.009116 3.739029 1.150218
7
Debug optimization step
C -2.076648 3.036005 0.314659
C -0.742120 2.904592 -0.393149
O 0.267674 3.483276 -0.101619
H -2.834225 3.381782 -0.398571
H -2.391005 2.052604 0.683647
H -0.774762 2.195511 -1.255185
H -2.009115 3.739032 1.150218
7
Debug optimization step
C -2.076649 3.036003 0.314660
C -0.742122 2.904592 -0.393149
O 0.267677 3.483277 -0.101622
H -2.834223 3.381784 -0.398571
H -2.391010 2.052602 0.683650
H -0.774757 2.195510 -1.255187
H -2.009115 3.739031 1.150218
7
Debug optimization step
C -2.076651 3.036000 0.314663
C -0.742126 2.904591 -0.393148
O 0.267681 3.483280 -0.101629
H -2.834220 3.381789 -0.398572
H -2.391019 2.052599 0.683656
H -0.774748 2.195510 -1.255189
H -2.009117 3.739030 1.150219
7
Debug optimization step
C -2.076651 3.036001 0.314662
C -0.742125 2.904591 -0.393149
O 0.267680 3.483280 -0.101627
H -2.834220 3.381788 -0.398572
H -2.391017 2.052599 0.683655
H -0.774750 2.195510 -1.255189
H -2.009116 3.739030 1.150219
7
Debug optimization step
C -2.076680 3.035964 0.314693
C -0.742173 2.904586 -0.393150
O 0.267716 3.483320 -0.101692
H -2.834193 3.381849 -0.398567
H -2.391131 2.052558 0.683730
H -0.774628 2.195506 -1.255224
H -2.009109 3.739017 1.150210
7
Debug optimization step
C -2.076666 3.035982 0.314677
C -0.742149 2.904588 -0.393150
O 0.267695 3.483300 -0.101656
H -2.834209 3.381818 -0.398568
H -2.391074 2.052579 0.683692
H -0.774688 2.195509 -1.255207
H -2.009108 3.739024 1.150212
7
Debug optimization step
C -2.076637 3.036018 0.314647
C -0.742103 2.904594 -0.393149
O 0.267660 3.483261 -0.101593
H -2.834236 3.381759 -0.398571
H -2.390964 2.052619 0.683620
H -0.774804 2.195512 -1.255173
H -2.009115 3.739038 1.150219
7
Debug optimization step
C -2.076644 3.036010 0.314655
C -0.742113 2.904593 -0.393148
O 0.267670 3.483270 -0.101610
H -2.834228 3.381773 -0.398572
H -2.390989 2.052610 0.683636
H -0.774779 2.195511 -1.255180
H -2.009117 3.739034 1.150220
7
Debug optimization step
C -2.076656 3.035995 0.314668
C -0.742133 2.904591 -0.393149
O 0.267688 3.483286 -0.101640
H -2.834214 3.381799 -0.398572
H -2.391037 2.052592 0.683669
H -0.774729 2.195510 -1.255195
H -2.009117 3.739027 1.150219
7
Debug optimization step
C -2.076653 3.035998 0.314665
C -0.742129 2.904591 -0.393149
O 0.267683 3.483283 -0.101633
H -2.834218 3.381793 -0.398572
H -2.391026 2.052596 0.683661
H -0.774740 2.195510 -1.255191
H -2.009116 3.739029 1.150218
7
Debug optimization step
C -2.076648 3.036005 0.314659
C -0.742120 2.904592 -0.393149
O 0.267674 3.483276 -0.101619
H -2.834225 3.381782 -0.398571
H -2.391005 2.052604 0.683647
H -0.774762 2.195511 -1.255185
H -2.009115 3.739032 1.150218
7
Debug optimization step
C -2.076649 3.036003 0.314660
C -0.742122 2.904592 -0.393149
O 0.267677 3.483277 -0.101622
H -2.834223 3.381784 -0.398571
H -2.391010 2.052602 0.683650
H -0.774757 2.195510 -1.255187
H -2.009115 3.739031 1.150218
7
Debug optimization step
C -2.076651 3.036000 0.314663
C -0.742126 2.904591 -0.393148
O 0.267681 3.483280 -0.101629
H -2.834220 3.381789 -0.398572
H -2.391019 2.052599 0.683656
H -0.774748 2.195510 -1.255189
H -2.009117 3.739030 1.150219
7
Debug optimization step
C -2.076651 3.036001 0.314662
C -0.742125 2.904591 -0.393149
O 0.267680 3.483280 -0.101627
H -2.834220 3.381788 -0.398572
H -2.391017 2.052599 0.683655
H -0.774750 2.195510 -1.255189
H -2.009116 3.739030 1.150219
7
Debug optimization step
C -2.369416 2.887162 0.126138
C -1.189727 2.751420 -0.090833
O -0.619782 3.874735 0.492096
H -2.948035 3.803173 0.225708
H -2.974391 2.185968 -0.175012
H -0.658471 1.915183 -0.642686
H 0.199621 3.375159 0.064589
7
Debug optimization step
C -2.230579 3.025831 0.263617
C -1.169688 2.637783 -0.159977
O -0.785768 3.780014 0.526255
H -2.951484 3.786410 0.107126
H -2.928353 2.223524 -0.109732
H -0.662242 1.939714 -0.704970
H 0.167915 3.399524 0.077680
7
Debug optimization step
C -2.164514 3.120843 0.239809
C -1.148734 2.551957 -0.222281
O -0.866043 3.691607 0.511596
H -2.982245 3.754503 0.122130
H -2.900320 2.292406 -0.043791
H -0.615934 1.926279 -0.710314
H 0.117591 3.455206 0.102850
7
Debug optimization step
C -2.147667 3.186991 0.185196
C -1.134118 2.438271 -0.288870
O -0.963878 3.566489 0.483142
H -2.958838 3.852363 0.188531
H -2.903114 2.379741 0.083752
H -0.471581 1.824117 -0.699398
H 0.018997 3.544828 0.047647
7
Debug optimization step
C -2.156192 3.206458 0.167463
C -1.142415 2.411224 -0.309880
O -0.974185 3.505955 0.500594
H -2.943428 3.879727 0.179507
H -2.895225 2.412096 0.126908
H -0.428949 1.804207 -0.674079
H -0.019805 3.573132 0.009487
7
Debug optimization step
C -2.114153 3.216209 0.163135
C -1.154137 2.417746 -0.307648
O -0.971297 3.489599 0.494307
H -2.946452 3.884182 0.176750
H -2.897660 2.406344 0.131365
H -0.424334 1.802315 -0.673742
H -0.052165 3.576405 0.015834
7
Debug optimization step
C -2.114238 3.215722 0.163624
C -1.153783 2.418899 -0.308804
O -0.971289 3.489560 0.494296
H -2.946449 3.884202 0.176743
H -2.897665 2.406332 0.131377
H -0.424537 1.801666 -0.673087
H -0.052238 3.576420 0.015850
7
Debug optimization step
C -2.114215 3.215880 0.163294
C -1.153714 2.418573 -0.308062
O -0.971284 3.489533 0.494290
H -2.946451 3.884211 0.176739
H -2.897667 2.406323 0.131386
H -0.424580 1.801849 -0.673505
H -0.052288 3.576431 0.015859
7
Debug optimization step
C -2.100484 3.217588 0.160947
C -1.156927 2.421947 -0.307411
O -0.969944 3.482975 0.492615
H -2.946500 3.886896 0.175583
H -2.898350 2.404256 0.133541
H -0.423524 1.800065 -0.673552
H -0.064468 3.579073 0.018277
7
Debug optimization step
C -2.100476 3.217605 0.160919
C -1.156930 2.421912 -0.307351
O -0.969944 3.482971 0.492615
H -2.946500 3.886898 0.175583
H -2.898350 2.404255 0.133542
H -0.423523 1.800085 -0.673585
H -0.064475 3.579075 0.018278
7
Debug optimization step
C -2.100475 3.217601 0.160924
C -1.156930 2.421921 -0.307364
O -0.969943 3.482970 0.492614
H -2.946500 3.886898 0.175582
H -2.898350 2.404255 0.133543
H -0.423524 1.800080 -0.673578
H -0.064477 3.579076 0.018278
7
Debug optimization step
C -2.100468 3.217593 0.160936
C -1.156930 2.421944 -0.307395
O -0.969943 3.482966 0.492614
H -2.946500 3.886900 0.175582
H -2.898351 2.404254 0.133544
H -0.423524 1.800067 -0.673561
H -0.064484 3.579078 0.018280
7
Debug optimization step
C -2.100466 3.217594 0.160933
C -1.156930 2.421940 -0.307388
O -0.969942 3.482965 0.492614
H -2.946500 3.886900 0.175582
H -2.898351 2.404253 0.133544
H -0.423524 1.800069 -0.673564
H -0.064485 3.579078 0.018280
7
Debug optimization step
C -2.100457 3.217602 0.160922
C -1.156933 2.421928 -0.307366
O -0.969942 3.482960 0.492613
H -2.946500 3.886902 0.175581
H -2.898351 2.404252 0.133546
H -0.423523 1.800076 -0.673577
H -0.064493 3.579080 0.018281
7
Debug optimization step
C -2.100456 3.217601 0.160923
C -1.156934 2.421931 -0.307369
O -0.969941 3.482960 0.492613
H -2.946500 3.886903 0.175581
H -2.898351 2.404252 0.133546
H -0.423523 1.800074 -0.673575
H -0.064495 3.579081 0.018282
7
Debug optimization step
C -2.369416 2.887162 0.126138
C -1.189727 2.751420 -0.090833
O -0.619782 3.874735 0.492096
H -2.948035 3.803173 0.225708
H -2.974391 2.185968 -0.175012
H -0.658471 1.915183 -0.642686
H 0.199621 3.375159 0.064589
7
Debug optimization step
C -2.230579 3.025831 0.263617
C -1.169688 2.637783 -0.159977
O -0.785768 3.780014 0.526255
H -2.951484 3.786410 0.107126
H -2.928353 2.223524 -0.109732
H -0.662242 1.939714 -0.704970
H 0.167915 3.399524 0.077680
7
Debug optimization step
C -2.164514 3.120843 0.239809
C -1.148734 2.551957 -0.222281
O -0.866043 3.691607 0.511596
H -2.982245 3.754503 0.122130
H -2.900320 2.292406 -0.043791
H -0.615934 1.926279 -0.710314
H 0.117591 3.455206 0.102850
7
Debug optimization step
C -2.147667 3.186991 0.185196
C -1.134118 2.438271 -0.288870
O -0.963878 3.566489 0.483142
H -2.958838 3.852363 0.188531
H -2.903114 2.379741 0.083752
H -0.471581 1.824117 -0.699398
H 0.018997 3.544828 0.047647
7
Debug optimization step
C -2.156192 3.206458 0.167463
C -1.142415 2.411224 -0.309880
O -0.974185 3.505955 0.500594
H -2.943428 3.879727 0.179507
H -2.895225 2.412096 0.126908
H -0.428949 1.804207 -0.674079
H -0.019805 3.573132 0.009487
7
Debug optimization step
C -2.114153 3.216209 0.163135
C -1.154137 2.417746 -0.307648
O -0.971297 3.489599 0.494307
H -2.946452 3.884182 0.176750
H -2.897660 2.406344 0.131365
H -0.424334 1.802315 -0.673742
H -0.052165 3.576405 0.015834
7
Debug optimization step
C -2.114238 3.215722 0.163624
C -1.153783 2.418899 -0.308804
O -0.971289 3.489560 0.494296
H -2.946449 3.884202 0.176743
H -2.897665 2.406332 0.131377
H -0.424537 1.801666 -0.673087
H -0.052238 3.576420 0.015850
7
Debug optimization step
C -2.114215 3.215880 0.163294
C -1.153714 2.418573 -0.308062
O -0.971284 3.489533 0.494290
H -2.946451 3.884211 0.176739
H -2.897667 2.406323 0.131386
H -0.424580 1.801849 -0.673505
H -0.052288 3.576431 0.015859
7
Debug optimization step
C -2.100484 3.217588 0.160947
C -1.156927 2.421947 -0.307411
O -0.969944 3.482975 0.492615
H -2.946500 3.886896 0.175583
H -2.898350 2.404256 0.133541
H -0.423524 1.800065 -0.673552
H -0.064468 3.579073 0.018277
7
Debug optimization step
C -2.100476 3.217605 0.160919
C -1.156930 2.421912 -0.307351
O -0.969944 3.482971 0.492615
H -2.946500 3.886898 0.175583
H -2.898350 2.404255 0.133542
H -0.423523 1.800085 -0.673585
H -0.064475 3.579075 0.018278
7
Debug optimization step
C -2.100475 3.217601 0.160924
C -1.156930 2.421921 -0.307364
O -0.969943 3.482970 0.492614
H -2.946500 3.886898 0.175582
H -2.898350 2.404255 0.133543
H -0.423524 1.800080 -0.673578
H -0.064477 3.579076 0.018278
7
Debug optimization step
C -2.100468 3.217593 0.160936
C -1.156930 2.421944 -0.307395
O -0.969943 3.482966 0.492614
H -2.946500 3.886900 0.175582
H -2.898351 2.404254 0.133544
H -0.423524 1.800067 -0.673561
H -0.064484 3.579078 0.018280
7
Debug optimization step
C -2.100466 3.217594 0.160933
C -1.156930 2.421940 -0.307388
O -0.969942 3.482965 0.492614
H -2.946500 3.886900 0.175582
H -2.898351 2.404253 0.133544
H -0.423524 1.800069 -0.673564
H -0.064485 3.579078 0.018280
7
Debug optimization step
C -2.100457 3.217602 0.160922
C -1.156933 2.421928 -0.307366
O -0.969942 3.482960 0.492613
H -2.946500 3.886902 0.175581
H -2.898351 2.404252 0.133546
H -0.423523 1.800076 -0.673577
H -0.064493 3.579080 0.018281
7
Debug optimization step
C -2.100456 3.217601 0.160923
C -1.156934 2.421931 -0.307369
O -0.969941 3.482960 0.492613
H -2.946500 3.886903 0.175581
H -2.898351 2.404252 0.133546
H -0.423523 1.800074 -0.673575
H -0.064495 3.579081 0.018282
7
Debug optimization step
C -2.369416 2.887162 0.126138
C -1.189727 2.751420 -0.090833
O -0.619782 3.874735 0.492096
H -2.948035 3.803173 0.225708
H -2.974391 2.185968 -0.175012
H -0.658471 1.915183 -0.642686
H 0.199621 3.375159 0.064589
7
Debug optimization step
C -2.230579 3.025831 0.263617
C -1.169688 2.637783 -0.159977
O -0.785768 3.780014 0.526255
H -2.951484 3.786410 0.107126
H -2.928353 2.223524 -0.109732
H -0.662242 1.939714 -0.704970
H 0.167915 3.399524 0.077680
7
Debug optimization step
C -2.164514 3.120843 0.239809
C -1.148734 2.551957 -0.222281
O -0.866043 3.691607 0.511596
H -2.982245 3.754503 0.122130
H -2.900320 2.292406 -0.043791
H -0.615934 1.926279 -0.710314
H 0.117591 3.455206 0.102850
7
Debug optimization step
C -2.147667 3.186991 0.185196
C -1.134118 2.438271 -0.288870
O -0.963878 3.566489 0.483142
H -2.958838 3.852363 0.188531
H -2.903114 2.379741 0.083752
H -0.471581 1.824117 -0.699398
H 0.018997 3.544828 0.047647
7
Debug optimization step
C -2.156192 3.206458 0.167463
C -1.142415 2.411224 -0.309880
O -0.974185 3.505955 0.500594
H -2.943428 3.879727 0.179507
H -2.895225 2.412096 0.126908
H -0.428949 1.804207 -0.674079
H -0.019805 3.573132 0.009487
7
Debug optimization step
C -2.114153 3.216209 0.163135
C -1.154137 2.417746 -0.307648
O -0.971297 3.489599 0.494307
H -2.946452 3.884182 0.176750
H -2.897660 2.406344 0.131365
H -0.424334 1.802315 -0.673742
H -0.052165 3.576405 0.015834
7
Debug optimization step
C -2.114238 3.215722 0.163624
C -1.153783 2.418899 -0.308804
O -0.971289 3.489560 0.494296
H -2.946449 3.884202 0.176743
H -2.897665 2.406332 0.131377
H -0.424537 1.801666 -0.673087
H -0.052238 3.576420 0.015850
7
Debug optimization step
C -2.114215 3.215880 0.163294
C -1.153714 2.418573 -0.308062
O -0.971284 3.489533 0.494290
H -2.946451 3.884211 0.176739
H -2.897667 2.406323 0.131386
H -0.424580 1.801849 -0.673505
H -0.052288 3.576431 0.015859
7
Debug optimization step
C -2.100484 3.217588 0.160947
C -1.156927 2.421947 -0.307411
O -0.969944 3.482975 0.492615
H -2.946500 3.886896 0.175583
H -2.898350 2.404256 0.133541
H -0.423524 1.800065 -0.673552
H -0.064468 3.579073 0.018277
7
Debug optimization step
C -2.100476 3.217605 0.160919
C -1.156930 2.421912 -0.307351
O -0.969944 3.482971 0.492615
H -2.946500 3.886898 0.175583
H -2.898350 2.404255 0.133542
H -0.423523 1.800085 -0.673585
H -0.064475 3.579075 0.018278
7
Debug optimization step
C -2.100475 3.217601 0.160924
C -1.156930 2.421921 -0.307364
O -0.969943 3.482970 0.492614
H -2.946500 3.886898 0.175582
H -2.898350 2.404255 0.133543
H -0.423524 1.800080 -0.673578
H -0.064477 3.579076 0.018278
7
Debug optimization step
C -2.100468 3.217593 0.160936
C -1.156930 2.421944 -0.307395
O -0.969943 3.482966 0.492614
H -2.946500 3.886900 0.175582
H -2.898351 2.404254 0.133544
H -0.423524 1.800067 -0.673561
H -0.064484 3.579078 0.018280
7
Debug optimization step
C -2.100466 3.217594 0.160933
C -1.156930 2.421940 -0.307388
O -0.969942 3.482965 0.492614
H -2.946500 3.886900 0.175582
H -2.898351 2.404253 0.133544
H -0.423524 1.800069 -0.673564
H -0.064485 3.579078 0.018280
7
Debug optimization step
C -2.100457 3.217602 0.160922
C -1.156933 2.421928 -0.307366
O -0.969942 3.482960 0.492613
H -2.946500 3.886902 0.175581
H -2.898351 2.404252 0.133546
H -0.423523 1.800076 -0.673577
H -0.064493 3.579080 0.018281
7
Debug optimization step
C -2.100456 3.217601 0.160923
C -1.156934 2.421931 -0.307369
O -0.969941 3.482960 0.492613
H -2.946500 3.886903 0.175581
H -2.898351 2.404252 0.133546
H -0.423523 1.800074 -0.673575
H -0.064495 3.579081 0.018282
7
Debug optimization step
C -2.369416 2.887162 0.126138
C -1.189727 2.751420 -0.090833
O -0.619782 3.874735 0.492096
H -2.948035 3.803173 0.225708
H -2.974391 2.185968 -0.175012
H -0.658471 1.915183 -0.642686
H 0.199621 3.375159 0.064589
7
Debug optimization step
C -2.230579 3.025831 0.263617
C -1.169688 2.637783 -0.159977
O -0.785768 3.780014 0.526255
H -2.951484 3.786410 0.107126
H -2.928353 2.223524 -0.109732
H -0.662242 1.939714 -0.704970
H 0.167915 3.399524 0.077680
7
Debug optimization step
C -2.164514 3.120843 0.239809
C -1.148734 2.551957 -0.222281
O -0.866043 3.691607 0.511596
H -2.982245 3.754503 0.122130
H -2.900320 2.292406 -0.043791
H -0.615934 1.926279 -0.710314
H 0.117591 3.455206 0.102850
7
Debug optimization step
C -2.147667 3.186991 0.185196
C -1.134118 2.438271 -0.288870
O -0.963878 3.566489 0.483142
H -2.958838 3.852363 0.188531
H -2.903114 2.379741 0.083752
H -0.471581 1.824117 -0.699398
H 0.018997 3.544828 0.047647
7
Debug optimization step
C -2.156192 3.206458 0.167463
C -1.142415 2.411224 -0.309880
O -0.974185 3.505955 0.500594
H -2.943428 3.879727 0.179507
H -2.895225 2.412096 0.126908
H -0.428949 1.804207 -0.674079
H -0.019805 3.573132 0.009487
7
Debug optimization step
C -2.114153 3.216209 0.163135
C -1.154137 2.417746 -0.307648
O -0.971297 3.489599 0.494307
H -2.946452 3.884182 0.176750
H -2.897660 2.406344 0.131365
H -0.424334 1.802315 -0.673742
H -0.052165 3.576405 0.015834
7
Debug optimization step
C -2.114238 3.215722 0.163624
C -1.153783 2.418899 -0.308804
O -0.971289 3.489560 0.494296
H -2.946449 3.884202 0.176743
H -2.897665 2.406332 0.131377
H -0.424537 1.801666 -0.673087
H -0.052238 3.576420 0.015850
7
Debug optimization step
C -2.114215 3.215880 0.163294
C -1.153714 2.418573 -0.308062
O -0.971284 3.489533 0.494290
H -2.946451 3.884211 0.176739
H -2.897667 2.406323 0.131386
H -0.424580 1.801849 -0.673505
H -0.052288 3.576431 0.015859
7
Debug optimization step
C -2.100484 3.217588 0.160947
C -1.156927 2.421947 -0.307411
O -0.969944 3.482975 0.492615
H -2.946500 3.886896 0.175583
H -2.898350 2.404256 0.133541
H -0.423524 1.800065 -0.673552
H -0.064468 3.579073 0.018277
7
Debug optimization step
C -2.100476 3.217605 0.160919
C -1.156930 2.421912 -0.307351
O -0.969944 3.482971 0.492615
H -2.946500 3.886898 0.175583
H -2.898350 2.404255 0.133542
H -0.423523 1.800085 -0.673585
H -0.064475 3.579075 0.018278
7
Debug optimization step
C -2.100475 3.217601 0.160924
C -1.156930 2.421921 -0.307364
O -0.969943 3.482970 0.492614
H -2.946500 3.886898 0.175582
H -2.898350 2.404255 0.133543
H -0.423524 1.800080 -0.673578
H -0.064477 3.579076 0.018278
7
Debug optimization step
C -2.100468 3.217593 0.160936
C -1.156930 2.421944 -0.307395
O -0.969943 3.482966 0.492614
H -2.946500 3.886900 0.175582
H -2.898351 2.404254 0.133544
H -0.423524 1.800067 -0.673561
H -0.064484 3.579078 0.018280
7
Debug optimization step
C -2.100466 3.217594 0.160933
C -1.156930 2.421940 -0.307388
O -0.969942 3.482965 0.492614
H -2.946500 3.886900 0.175582
H -2.898351 2.404253 0.133544
H -0.423524 1.800069 -0.673564
H -0.064485 3.579078 0.018280
7
Debug optimization step
C -2.100457 3.217602 0.160922
C -1.156933 2.421928 -0.307366
O -0.969942 3.482960 0.492613
H -2.946500 3.886902 0.175581
H -2.898351 2.404252 0.133546
H -0.423523 1.800076 -0.673577
H -0.064493 3.579080 0.018281
7
Debug optimization step
C -2.100456 3.217601 0.160923
C -1.156934 2.421931 -0.307369
O -0.969941 3.482960 0.492613
H -2.946500 3.886903 0.175581
H -2.898351 2.404252 0.133546
H -0.423523 1.800074 -0.673575
H -0.064495 3.579081 0.018282
7
Debug optimization step
C -2.369416 2.887162 0.126138
C -1.189727 2.751420 -0.090833
O -0.619782 3.874735 0.492096
H -2.948035 3.803173 0.225708
H -2.974391 2.185968 -0.175012
H -0.658471 1.915183 -0.642686
H 0.199621 3.375159 0.064589
7
Debug optimization step
C -2.230579 3.025831 0.263617
C -1.169688 2.637783 -0.159977
O -0.785768 3.780014 0.526255
H -2.951484 3.786410 0.107126
H -2.928353 2.223524 -0.109732
H -0.662242 1.939714 -0.704970
H 0.167915 3.399524 0.077680
7
Debug optimization step
C -2.164514 3.120843 0.239809
C -1.148734 2.551957 -0.222281
O -0.866043 3.691607 0.511596
H -2.982245 3.754503 0.122130
H -2.900320 2.292406 -0.043791
H -0.615934 1.926279 -0.710314
H 0.117591 3.455206 0.102850
7
Debug optimization step
C -2.147667 3.186991 0.185196
C -1.134118 2.438271 -0.288870
O -0.963878 3.566489 0.483142
H -2.958838 3.852363 0.188531
H -2.903114 2.379741 0.083752
H -0.471581 1.824117 -0.699398
H 0.018997 3.544828 0.047647
7
Debug optimization step
C -2.156192 3.206458 0.167463
C -1.142415 2.411224 -0.309880
O -0.974185 3.505955 0.500594
H -2.943428 3.879727 0.179507
H -2.895225 2.412096 0.126908
H -0.428949 1.804207 -0.674079
H -0.019805 3.573132 0.009487
7
Debug optimization step
C -2.114153 3.216209 0.163135
C -1.154137 2.417746 -0.307648
O -0.971297 3.489599 0.494307
H -2.946452 3.884182 0.176750
H -2.897660 2.406344 0.131365
H -0.424334 1.802315 -0.673742
H -0.052165 3.576405 0.015834
7
Debug optimization step
C -2.114238 3.215722 0.163624
C -1.153783 2.418899 -0.308804
O -0.971289 3.489560 0.494296
H -2.946449 3.884202 0.176743
H -2.897665 2.406332 0.131377
H -0.424537 1.801666 -0.673087
H -0.052238 3.576420 0.015850
7
Debug optimization step
C -2.114215 3.215880 0.163294
C -1.153714 2.418573 -0.308062
O -0.971284 3.489533 0.494290
H -2.946451 3.884211 0.176739
H -2.897667 2.406323 0.131386
H -0.424580 1.801849 -0.673505
H -0.052288 3.576431 0.015859
7
Debug optimization step
C -2.100484 3.217588 0.160947
C -1.156927 2.421947 -0.307411
O -0.969944 3.482975 0.492615
H -2.946500 3.886896 0.175583
H -2.898350 2.404256 0.133541
H -0.423524 1.800065 -0.673552
H -0.064468 3.579073 0.018277
7
Debug optimization step
C -2.100476 3.217605 0.160919
C -1.156930 2.421912 -0.307351
O -0.969944 3.482971 0.492615
H -2.946500 3.886898 0.175583
H -2.898350 2.404255 0.133542
H -0.423523 1.800085 -0.673585
H -0.064475 3.579075 0.018278
7
Debug optimization step
C -2.100475 3.217601 0.160924
C -1.156930 2.421921 -0.307364
O -0.969943 3.482970 0.492614
H -2.946500 3.886898 0.175582
H -2.898350 2.404255 0.133543
H -0.423524 1.800080 -0.673578
H -0.064477 3.579076 0.018278
7
Debug optimization step
C -2.100468 3.217593 0.160936
C -1.156930 2.421944 -0.307395
O -0.969943 3.482966 0.492614
H -2.946500 3.886900 0.175582
H -2.898351 2.404254 0.133544
H -0.423524 1.800067 -0.673561
H -0.064484 3.579078 0.018280
7
Debug optimization step
C -2.100466 3.217594 0.160933
C -1.156930 2.421940 -0.307388
O -0.969942 3.482965 0.492614
H -2.946500 3.886900 0.175582
H -2.898351 2.404253 0.133544
H -0.423524 1.800069 -0.673564
H -0.064485 3.579078 0.018280
7
Debug optimization step
C -2.100457 3.217602 0.160922
C -1.156933 2.421928 -0.307366
O -0.969942 3.482960 0.492613
H -2.946500 3.886902 0.175581
H -2.898351 2.404252 0.133546
H -0.423523 1.800076 -0.673577
H -0.064493 3.579080 0.018281
7
Debug optimization step
C -2.100456 3.217601 0.160923
C -1.156934 2.421931 -0.307369
O -0.969941 3.482960 0.492613
H -2.946500 3.886903 0.175581
H -2.898351 2.404252 0.133546
H -0.423523 1.800074 -0.673575
H -0.064495 3.579081 0.018282
7
Debug optimization step
C -2.023138 3.319298 0.226677
C -0.807106 2.509292 -0.290601
O 0.287679 2.574949 0.235485
H -2.415055 3.981975 -0.577418
H -2.855647 2.632909 0.499949
H -1.001232 1.843306 -1.200233
H -1.745700 3.931071 1.106141
7
Debug optimization step
C -2.023137 3.319314 0.226679
C -0.807096 2.509304 -0.290583
O 0.287709 2.574916 0.235488
H -2.415088 3.981992 -0.577368
H -2.855659 2.632897 0.499937
H -1.001204 1.843246 -1.200295
H -1.745724 3.931131 1.106141
7
Debug optimization step
C -2.023134 3.319346 0.226681
C -0.807078 2.509327 -0.290546
O 0.287763 2.574854 0.235497
H -2.415158 3.982029 -0.577271
H -2.855676 2.632867 0.499910
H -1.001152 1.843133 -1.200408
H -1.745764 3.931245 1.106137
7
Debug optimization step
C -2.023135 3.319340 0.226679
C -0.807083 2.509321 -0.290554
O 0.287749 2.574868 0.235497
H -2.415145 3.982023 -0.577292
H -2.855669 2.632870 0.499914
H -1.001166 1.843160 -1.200380
H -1.745752 3.931218 1.106135
7
Debug optimization step
C -2.023136 3.319326 0.226678
C -0.807092 2.509311 -0.290570
O 0.287724 2.574897 0.235494
H -2.415115 3.982007 -0.577335
H -2.855660 2.632882 0.499924
H -1.001189 1.843210 -1.200329
H -1.745732 3.931167 1.106137
7
Debug optimization step
C -2.023136 3.319329 0.226679
C -0.807089 2.509314 -0.290566
O 0.287730 2.574890 0.235494
H -2.415122 3.982010 -0.577325
H -2.855663 2.632880 0.499922
H -1.001183 1.843198 -1.200341
H -1.745737 3.931179 1.106136
7
Debug optimization step
C -2.023135 3.319335 0.226679
C -0.807085 2.509318 -0.290559
O 0.287742 2.574877 0.235496
H -2.415135 3.982018 -0.577306
H -2.855667 2.632874 0.499918
H -1.001173 1.843176 -1.200364
H -1.745746 3.931202 1.106135
7
Debug optimization step
C -2.023135 3.319333 0.226679
C -0.807086 2.509317 -0.290560
O 0.287739 2.574880 0.235495
H -2.415132 3.982016 -0.577310
H -2.855666 2.632875 0.499919
H -1.001175 1.843181 -1.200358
H -1.745743 3.931197 1.106136
7
Debug optimization step
C -2.023135 3.319331 0.226679
C -0.807088 2.509315 -0.290564
O 0.287734 2.574886 0.235495
H -2.415126 3.982013 -0.577318
H -2.855664 2.632878 0.499920
H -1.001180 1.843191 -1.200348
H -1.745739 3.931187 1.106136
7
Debug optimization step
C -2.023135 3.319331 0.226679
C -0.807088 2.509316 -0.290563
O 0.287735 2.574885 0.235495
H -2.415127 3.982014 -0.577316
H -2.855664 2.632877 0.499920
H -1.001179 1.843189 -1.200351
H -1.745740 3.931189 1.106136
7
Debug optimization step
C -2.023138 3.319298 0.226677
C -0.807106 2.509292 -0.290601
O 0.287679 2.574949 0.235485
H -2.415055 3.981975 -0.577418
H -2.855647 2.632909 0.499949
H -1.001232 1.843306 -1.200233
H -1.745700 3.931071 1.106141
7
Debug optimization step
C -2.023137 3.319314 0.226679
C -0.807096 2.509304 -0.290583
O 0.287709 2.574916 0.235488
H -2.415088 3.981992 -0.577368
H -2.855659 2.632897 0.499937
H -1.001204 1.843246 -1.200295
H -1.745724 3.931131 1.106141
7
Debug optimization step
C -2.023134 3.319346 0.226681
C -0.807078 2.509327 -0.290546
O 0.287763 2.574854 0.235497
H -2.415158 3.982029 -0.577271
H -2.855676 2.632867 0.499910
H -1.001152 1.843133 -1.200408
H -1.745764 3.931245 1.106137
7
Debug optimization step
C -2.023135 3.319340 0.226679
C -0.807083 2.509321 -0.290554
O 0.287749 2.574868 0.235497
H -2.415145 3.982023 -0.577292
H -2.855669 2.632870 0.499914
H -1.001166 1.843160 -1.200380
H -1.745752 3.931218 1.106135
7
Debug optimization step
C -2.023136 3.319326 0.226678
C -0.807092 2.509311 -0.290570
O 0.287724 2.574897 0.235494
H -2.415115 3.982007 -0.577335
H -2.855660 2.632882 0.499924
H -1.001189 1.843210 -1.200329
H -1.745732 3.931167 1.106137
7
Debug optimization step
C -2.023136 3.319329 0.226679
C -0.807089 2.509314 -0.290566
O 0.287730 2.574890 0.235494
H -2.415122 3.982010 -0.577325
H -2.855663 2.632880 0.499922
H -1.001183 1.843198 -1.200341
H -1.745737 3.931179 1.106136
7
Debug optimization step
C -2.023135 3.319335 0.226679
C -0.807085 2.509318 -0.290559
O 0.287742 2.574877 0.235496
H -2.415135 3.982018 -0.577306
H -2.855667 2.632874 0.499918
H -1.001173 1.843176 -1.200364
H -1.745746 3.931202 1.106135
7
Debug optimization step
C -2.023135 3.319333 0.226679
C -0.807086 2.509317 -0.290560
O 0.287739 2.574880 0.235495
H -2.415132 3.982016 -0.577310
H -2.855666 2.632875 0.499919
H -1.001175 1.843181 -1.200358
H -1.745743 3.931197 1.106136
7
Debug optimization step
C -2.023135 3.319331 0.226679
C -0.807088 2.509315 -0.290564
O 0.287734 2.574886 0.235495
H -2.415126 3.982013 -0.577318
H -2.855664 2.632878 0.499920
H -1.001180 1.843191 -1.200348
H -1.745739 3.931187 1.106136
7
Debug optimization step
C -2.023135 3.319331 0.226679
C -0.807088 2.509316 -0.290563
O 0.287735 2.574885 0.235495
H -2.415127 3.982014 -0.577316
H -2.855664 2.632877 0.499920
H -1.001179 1.843189 -1.200351
H -1.745740 3.931189 1.106136
7
Debug optimization step
C -2.023138 3.319298 0.226677
C -0.807106 2.509292 -0.290601
O 0.287679 2.574949 0.235485
H -2.415055 3.981975 -0.577418
H -2.855647 2.632909 0.499949
H -1.001232 1.843306 -1.200233
H -1.745700 3.931071 1.106141
7
Debug optimization step
C -2.023137 3.319314 0.226679
C -0.807096 2.509304 -0.290583
O 0.287709 2.574916 0.235488
H -2.415088 3.981992 -0.577368
H -2.855659 2.632897 0.499937
H -1.001204 1.843246 -1.200295
H -1.745724 3.931131 1.106141
7
Debug optimization step
C -2.023134 3.319346 0.226681
C -0.807078 2.509327 -0.290546
O 0.287763 2.574854 0.235497
H -2.415158 3.982029 -0.577271
H -2.855676 2.632867 0.499910
H -1.001152 1.843133 -1.200408
H -1.745764 3.931245 1.106137
7
Debug optimization step
C -2.023135 3.319340 0.226679
C -0.807083 2.509321 -0.290554
O 0.287749 2.574868 0.235497
H -2.415145 3.982023 -0.577292
H -2.855669 2.632870 0.499914
H -1.001166 1.843160 -1.200380
H -1.745752 3.931218 1.106135
7
Debug optimization step
C -2.023136 3.319326 0.226678
C -0.807092 2.509311 -0.290570
O 0.287724 2.574897 0.235494
H -2.415115 3.982007 -0.577335
H -2.855660 2.632882 0.499924
H -1.001189 1.843210 -1.200329
H -1.745732 3.931167 1.106137
7
Debug optimization step
C -2.023136 3.319329 0.226679
C -0.807089 2.509314 -0.290566
O 0.287730 2.574890 0.235494
H -2.415122 3.982010 -0.577325
H -2.855663 2.632880 0.499922
H -1.001183 1.843198 -1.200341
H -1.745737 3.931179 1.106136
7
Debug optimization step
C -2.023135 3.319335 0.226679
C -0.807085 2.509318 -0.290559
O 0.287742 2.574877 0.235496
H -2.415135 3.982018 -0.577306
H -2.855667 2.632874 0.499918
H -1.001173 1.843176 -1.200364
H -1.745746 3.931202 1.106135
7
Debug optimization step
C -2.023135 3.319333 0.226679
C -0.807086 2.509317 -0.290560
O 0.287739 2.574880 0.235495
H -2.415132 3.982016 -0.577310
H -2.855666 2.632875 0.499919
H -1.001175 1.843181 -1.200358
H -1.745743 3.931197 1.106136
7
Debug optimization step
C -2.023135 3.319331 0.226679
C -0.807088 2.509315 -0.290564
O 0.287734 2.574886 0.235495
H -2.415126 3.982013 -0.577318
H -2.855664 2.632878 0.499920
H -1.001180 1.843191 -1.200348
H -1.745739 3.931187 1.106136
7
Debug optimization step
C -2.023135 3.319331 0.226679
C -0.807088 2.509316 -0.290563
O 0.287735 2.574885 0.235495
H -2.415127 3.982014 -0.577316
H -2.855664 2.632877 0.499920
H -1.001179 1.843189 -1.200351
H -1.745740 3.931189 1.106136
7
Debug optimization step
C -2.023138 3.319298 0.226677
C -0.807106 2.509292 -0.290601
O 0.287679 2.574949 0.235485
H -2.415055 3.981975 -0.577418
H -2.855647 2.632909 0.499949
H -1.001232 1.843306 -1.200233
H -1.745700 3.931071 1.106141
7
Debug optimization step
C -2.023137 3.319314 0.226679
C -0.807096 2.509304 -0.290583
O 0.287709 2.574916 0.235488
H -2.415088 3.981992 -0.577368
H -2.855659 2.632897 0.499937
H -1.001204 1.843246 -1.200295
H -1.745724 3.931131 1.106141
7
Debug optimization step
C -2.023134 3.319346 0.226681
C -0.807078 2.509327 -0.290546
O 0.287763 2.574854 0.235497
H -2.415158 3.982029 -0.577271
H -2.855676 2.632867 0.499910
H -1.001152 1.843133 -1.200408
H -1.745764 3.931245 1.106137
7
Debug optimization step
C -2.023135 3.319340 0.226679
C -0.807083 2.509321 -0.290554
O 0.287749 2.574868 0.235497
H -2.415145 3.982023 -0.577292
H -2.855669 2.632870 0.499914
H -1.001166 1.843160 -1.200380
H -1.745752 3.931218 1.106135
7
Debug optimization step
C -2.023136 3.319326 0.226678
C -0.807092 2.509311 -0.290570
O 0.287724 2.574897 0.235494
H -2.415115 3.982007 -0.577335
H -2.855660 2.632882 0.499924
H -1.001189 1.843210 -1.200329
H -1.745732 3.931167 1.106137
7
Debug optimization step
C -2.023136 3.319329 0.226679
C -0.807089 2.509314 -0.290566
O 0.287730 2.574890 0.235494
H -2.415122 3.982010 -0.577325
H -2.855663 2.632880 0.499922
H -1.001183 1.843198 -1.200341
H -1.745737 3.931179 1.106136
7
Debug optimization step
C -2.023135 3.319335 0.226679
C -0.807085 2.509318 -0.290559
O 0.287742 2.574877 0.235496
H -2.415135 3.982018 -0.577306
H -2.855667 2.632874 0.499918
H -1.001173 1.843176 -1.200364
H -1.745746 3.931202 1.106135
7
Debug optimization step
C -2.023135 3.319333 0.226679
C -0.807086 2.509317 -0.290560
O 0.287739 2.574880 0.235495
H -2.415132 3.982016 -0.577310
H -2.855666 2.632875 0.499919
H -1.001175 1.843181 -1.200358
H -1.745743 3.931197 1.106136
7
Debug optimization step
C -2.023135 3.319331 0.226679
C -0.807088 2.509315 -0.290564
O 0.287734 2.574886 0.235495
H -2.415126 3.982013 -0.577318
H -2.855664 2.632878 0.499920
H -1.001180 1.843191 -1.200348
H -1.745739 3.931187 1.106136
7
Debug optimization step
C -2.023135 3.319331 0.226679
C -0.807088 2.509316 -0.290563
O 0.287735 2.574885 0.235495
H -2.415127 3.982014 -0.577316
H -2.855664 2.632877 0.499920
H -1.001179 1.843189 -1.200351
H -1.745740 3.931189 1.106136
